Pt  C  O  C  O  H                       
    1.000000000000000     
    11.2213408561008308    0.0000000000000000    0.0000000000000000
     1.4026676070126025   10.7740943252779040    0.0000000000000000
     0.0000000000000000    0.0000000000000000   27.7475611781839042
   Pt   C    O    C    O    H 
    56     1     1     1     2     1
Selective dynamics
Direct
  0.0169491525423737  0.8644067796610173  0.3976208246282127   F   F   F
  0.1694915254237301  0.6440677966101660  0.4162352201503552   F   F   F
  0.0720338983050866  0.4237288135593218  0.4348496156724977   F   F   F
  0.2245762711864430  0.2033898305084776  0.4534640111946402   F   F   F
  0.1255550322779834  0.9892861216208201  0.4656704919098573   T   T   T
  0.0277802978451477  0.7728265696076168  0.4929001146208812   T   T   T
  0.1816254052251451  0.5518028075512106  0.5090729515392179   T   T   T
  0.0836107693745998  0.3310200017727384  0.5263917445562992   T   T   T
  0.2367754691829718  0.1038278511818770  0.5409452496998957   T   T   T
  0.1388986869222088  0.8811002229726634  0.5693018099275052   T   T   T
  0.0407598546277777  0.6660311033561097  0.5862531976217222   T   T   T
  0.1920949718109853  0.4554019775643338  0.6021700994445043   T   T   T
  0.0949711441084591  0.2408565532707909  0.6178534573015744   T   T   T
  0.9965653284951669  0.0242424357167523  0.6363537739188486   T   T   T
  0.2669491525423737  0.8644067796610173  0.3976208246282127   F   F   F
  0.4194915254237301  0.6440677966101660  0.4162352201503552   F   F   F
  0.3220338983050866  0.4237288135593218  0.4348496156724977   F   F   F
  0.4745762711864430  0.2033898305084776  0.4534640111946402   F   F   F
  0.3771415786045679  0.9885210257320716  0.4659236376885275   T   T   T
  0.2783747061703712  0.7721490390228133  0.4924603222561277   T   T   T
  0.4325296707301923  0.5530348282112812  0.5114160502534376   T   T   T
  0.3342028506068518  0.3313527766456660  0.5264100946433473   T   T   T
  0.4871930944295783  0.1029260830036823  0.5450321991849866   T   T   T
  0.3893036041295025  0.8812879661328423  0.5693035392049580   T   T   T
  0.2891529084176315  0.6671306368194513  0.5862422042645439   T   T   T
  0.4408231307722725  0.4531677601007525  0.6034378323681380   T   T   T
  0.3437195943543785  0.2414566159983184  0.6180575608377059   T   T   T
  0.2469479106795042  0.0262174691851204  0.6316299637495472   T   T   T
  0.5169491525423737  0.8644067796610173  0.3976208246282127   F   F   F
  0.6694915254237301  0.6440677966101660  0.4162352201503552   F   F   F
  0.5720338983050866  0.4237288135593218  0.4348496156724977   F   F   F
  0.7245762711864430  0.2033898305084776  0.4534640111946402   F   F   F
  0.6253398683848331  0.9888190012436279  0.4657726675518331   T   T   T
  0.5279940809513601  0.7715938044205677  0.4947101064798994   T   T   T
  0.6806850781160884  0.5533853834693859  0.5103597841309496   T   T   T
  0.5836345579108928  0.3310514080932245  0.5264778887382141   T   T   T
  0.7372888514091426  0.1038828147345040  0.5411794709899104   T   T   T
  0.6394468173335791  0.8821251395490836  0.5689857780528378   T   T   T
  0.5407508583645050  0.6691297043143475  0.5929895224328405   T   T   T
  0.6949518904867835  0.4542286232322040  0.6015878310402053   T   T   T
  0.5949581489337654  0.2418625631262419  0.6181934796573881   T   T   T
  0.4964873271959208  0.0250617324328602  0.6363034263306379   T   T   T
  0.7669491525423737  0.8644067796610173  0.3976208246282127   F   F   F
  0.9194915254237301  0.6440677966101660  0.4162352201503552   F   F   F
  0.8220338983050866  0.4237288135593218  0.4348496156724977   F   F   F
  0.9745762711864430  0.2033898305084776  0.4534640111946402   F   F   F
  0.8769748141546281  0.9889104961097467  0.4659434656294836   T   T   T
  0.7779535284835352  0.7724196059918328  0.4923339438477201   T   T   T
  0.9305584892802043  0.5504292174036685  0.5094163859319519   T   T   T
  0.8341477257228600  0.3302220714542948  0.5263951518522405   T   T   T
  0.9874014047983226  0.1023567276725920  0.5450679460249922   T   T   T
  0.8898340747690797  0.8806474509902137  0.5696875912993146   T   T   T
  0.7934863270885379  0.6669067330064284  0.5862537904945850   T   T   T
  0.9432737365791075  0.4538223458636729  0.6038427643120509   T   T   T
  0.8443030417093345  0.2410558819238544  0.6182437764724446   T   T   T
  0.7458858132775706  0.0259812014726955  0.6317442877855703   T   T   T
  0.5020653530100220  0.9703906965853849  0.7000318113048878   T   T   T
  0.5049757839212308  0.9381060063513557  0.7399148656829001   T   T   T
  0.0029002141267411  0.9687338037764689  0.6996048563668300   T   T   T
  0.0065319742534325  0.9329509181706613  0.7390604098052372   T   T   T
  0.5398062290584542  0.6991255921153320  0.6636261411937378   T   T   T
  0.6199416970218103  0.6658856353426612  0.6753583215401890   T   T   T
 
  0.00000000E+00  0.00000000E+00  0.00000000E+00
  0.00000000E+00  0.00000000E+00  0.00000000E+00
  0.00000000E+00  0.00000000E+00  0.00000000E+00
  0.00000000E+00  0.00000000E+00  0.00000000E+00
  0.00000000E+00  0.00000000E+00  0.00000000E+00
  0.00000000E+00  0.00000000E+00  0.00000000E+00
  0.00000000E+00  0.00000000E+00  0.00000000E+00
  0.00000000E+00  0.00000000E+00  0.00000000E+00
  0.00000000E+00  0.00000000E+00  0.00000000E+00
  0.00000000E+00  0.00000000E+00  0.00000000E+00
  0.00000000E+00  0.00000000E+00  0.00000000E+00
  0.00000000E+00  0.00000000E+00  0.00000000E+00
  0.00000000E+00  0.00000000E+00  0.00000000E+00
  0.00000000E+00  0.00000000E+00  0.00000000E+00
  0.00000000E+00  0.00000000E+00  0.00000000E+00
  0.00000000E+00  0.00000000E+00  0.00000000E+00
  0.00000000E+00  0.00000000E+00  0.00000000E+00
  0.00000000E+00  0.00000000E+00  0.00000000E+00
  0.00000000E+00  0.00000000E+00  0.00000000E+00
  0.00000000E+00  0.00000000E+00  0.00000000E+00
  0.00000000E+00  0.00000000E+00  0.00000000E+00
  0.00000000E+00  0.00000000E+00  0.00000000E+00
  0.00000000E+00  0.00000000E+00  0.00000000E+00
  0.00000000E+00  0.00000000E+00  0.00000000E+00
  0.00000000E+00  0.00000000E+00  0.00000000E+00
  0.00000000E+00  0.00000000E+00  0.00000000E+00
  0.00000000E+00  0.00000000E+00  0.00000000E+00
  0.00000000E+00  0.00000000E+00  0.00000000E+00
  0.00000000E+00  0.00000000E+00  0.00000000E+00
  0.00000000E+00  0.00000000E+00  0.00000000E+00
  0.00000000E+00  0.00000000E+00  0.00000000E+00
  0.00000000E+00  0.00000000E+00  0.00000000E+00
  0.00000000E+00  0.00000000E+00  0.00000000E+00
  0.00000000E+00  0.00000000E+00  0.00000000E+00
  0.00000000E+00  0.00000000E+00  0.00000000E+00
  0.00000000E+00  0.00000000E+00  0.00000000E+00
  0.00000000E+00  0.00000000E+00  0.00000000E+00
  0.00000000E+00  0.00000000E+00  0.00000000E+00
  0.00000000E+00  0.00000000E+00  0.00000000E+00
  0.00000000E+00  0.00000000E+00  0.00000000E+00
  0.00000000E+00  0.00000000E+00  0.00000000E+00
  0.00000000E+00  0.00000000E+00  0.00000000E+00
  0.00000000E+00  0.00000000E+00  0.00000000E+00
  0.00000000E+00  0.00000000E+00  0.00000000E+00
  0.00000000E+00  0.00000000E+00  0.00000000E+00
  0.00000000E+00  0.00000000E+00  0.00000000E+00
  0.00000000E+00  0.00000000E+00  0.00000000E+00
  0.00000000E+00  0.00000000E+00  0.00000000E+00
  0.00000000E+00  0.00000000E+00  0.00000000E+00
  0.00000000E+00  0.00000000E+00  0.00000000E+00
  0.00000000E+00  0.00000000E+00  0.00000000E+00
  0.00000000E+00  0.00000000E+00  0.00000000E+00
  0.00000000E+00  0.00000000E+00  0.00000000E+00
  0.00000000E+00  0.00000000E+00  0.00000000E+00
  0.00000000E+00  0.00000000E+00  0.00000000E+00
  0.00000000E+00  0.00000000E+00  0.00000000E+00
  0.00000000E+00  0.00000000E+00  0.00000000E+00
  0.00000000E+00  0.00000000E+00  0.00000000E+00
  0.00000000E+00  0.00000000E+00  0.00000000E+00
  0.00000000E+00  0.00000000E+00  0.00000000E+00
  0.00000000E+00  0.00000000E+00  0.00000000E+00
  0.00000000E+00  0.00000000E+00  0.00000000E+00
