Pt  C  O  C  O  H                       
    1.000000000000000     
    11.2213408561008308    0.0000000000000000    0.0000000000000000
     1.4026676070126025   10.7740943252779040    0.0000000000000000
     0.0000000000000000    0.0000000000000000   27.7475611781839042
   Pt   C    O    C    O    H 
    56     1     1     1     2     1
Selective dynamics
Direct
  0.0169491525423737  0.8644067796610173  0.3976208246282127   F   F   F
  0.1694915254237301  0.6440677966101660  0.4162352201503552   F   F   F
  0.0720338983050866  0.4237288135593218  0.4348496156724977   F   F   F
  0.2245762711864430  0.2033898305084776  0.4534640111946402   F   F   F
  0.1272262585792692  0.9868810189783171  0.4651809515464054   T   T   T
  0.0284778782897026  0.7700584577990436  0.4927331889459862   T   T   T
  0.1834243083910817  0.5518139641552378  0.5105562293512557   T   T   T
  0.0815015679592079  0.3339767916754978  0.5279202024183232   T   T   T
  0.2346729119048405  0.1058828560875496  0.5407992073638299   T   T   T
  0.1404788273212903  0.8789996292359482  0.5691021610443846   T   T   T
  0.0472902929453729  0.6641997756177401  0.5862675814424702   T   T   T
  0.1944688946145063  0.4501658433752803  0.6033512451972783   T   T   T
  0.0937000837786619  0.2423228501671999  0.6201354770583574   T   T   T
  0.9980109857206561  0.0273444223641969  0.6308450920670878   T   T   T
  0.2669491525423737  0.8644067796610173  0.3976208246282127   F   F   F
  0.4194915254237301  0.6440677966101660  0.4162352201503552   F   F   F
  0.3220338983050866  0.4237288135593218  0.4348496156724977   F   F   F
  0.4745762711864430  0.2033898305084776  0.4534640111946402   F   F   F
  0.3775673268750545  0.9885058344496785  0.4656134198430122   T   T   T
  0.2796038783832842  0.7711933452783956  0.4936473830027642   T   T   T
  0.4316004081289986  0.5525391597917839  0.5100745064137308   T   T   T
  0.3348051665566137  0.3306427323348936  0.5262654586392398   T   T   T
  0.4891617666695313  0.1041824482440698  0.5441794756091033   T   T   T
  0.3892678139228827  0.8879758912421106  0.5677031529519122   T   T   T
  0.2920950787904293  0.6675211803876315  0.5930048668178589   T   T   T
  0.4445131668582425  0.4476501451300241  0.6035228118489681   T   T   T
  0.3454648555565673  0.2369183000364050  0.6180087707299601   T   T   T
  0.2414609931705003  0.0276149005232385  0.6309792571486001   T   T   T
  0.5169491525423737  0.8644067796610173  0.3976208246282127   F   F   F
  0.6694915254237301  0.6440677966101660  0.4162352201503552   F   F   F
  0.5720338983050866  0.4237288135593218  0.4348496156724977   F   F   F
  0.7245762711864430  0.2033898305084776  0.4534640111946402   F   F   F
  0.6256390703405489  0.9878540200063680  0.4660838071897488   T   T   T
  0.5289912102119826  0.7713512949765680  0.4936479052801998   T   T   T
  0.6797007240046188  0.5538766751069084  0.5118975718889726   T   T   T
  0.5849656842021009  0.3329691454154362  0.5273883695611086   T   T   T
  0.7395376100685148  0.1044008792534671  0.5408407511380288   T   T   T
  0.6408278753151517  0.8817158030643470  0.5698763556269227   T   T   T
  0.5372045976470581  0.6702576058063601  0.5921732327960441   T   T   T
  0.6919988442295439  0.4525279534269461  0.6080303185905811   T   T   T
  0.5984663239385909  0.2371221906822823  0.6187993001990442   T   T   T
  0.4999471773246925  0.0242221767010221  0.6352592113692453   T   T   T
  0.7669491525423737  0.8644067796610173  0.3976208246282127   F   F   F
  0.9194915254237301  0.6440677966101660  0.4162352201503552   F   F   F
  0.8220338983050866  0.4237288135593218  0.4348496156724977   F   F   F
  0.9745762711864430  0.2033898305084776  0.4534640111946402   F   F   F
  0.8760564922980092  0.9867249088489841  0.4652868170772742   T   T   T
  0.7780901669553624  0.7702677269516071  0.4938359443581828   T   T   T
  0.9300663442451680  0.5513058479201766  0.5108841645743833   T   T   T
  0.8330292799185007  0.3349062542511180  0.5277046156604506   T   T   T
  0.9868785461814666  0.1029111834272780  0.5403491054288569   T   T   T
  0.8922035819321498  0.8761538492537537  0.5695111384347161   T   T   T
  0.7897264213204982  0.6692420892636319  0.5912800347057374   T   T   T
  0.9459525117797311  0.4557426044292689  0.6092894892687482   T   T   T
  0.8468732841198469  0.2394612240604027  0.6192076043940904   T   T   T
  0.7541617420370545  0.0250233408991092  0.6311982449549538   T   T   T
  0.4149903981537391  0.6732487393300729  0.6459410365689456   T   T   T
  0.4135382265932185  0.6870698726026191  0.6881928356318248   T   T   T
  0.8061876528806623  0.5504904204009750  0.6508890667371947   T   T   T
  0.8016221802004015  0.5715258793114938  0.6932098974957364   T   T   T
  0.4979261810423379  0.9734313379720371  0.7029967997056529   T   T   T
  0.5804514273968973  0.9576599907421152  0.7151546235130993   T   T   T
 
  0.00000000E+00  0.00000000E+00  0.00000000E+00
  0.00000000E+00  0.00000000E+00  0.00000000E+00
  0.00000000E+00  0.00000000E+00  0.00000000E+00
  0.00000000E+00  0.00000000E+00  0.00000000E+00
  0.00000000E+00  0.00000000E+00  0.00000000E+00
  0.00000000E+00  0.00000000E+00  0.00000000E+00
  0.00000000E+00  0.00000000E+00  0.00000000E+00
  0.00000000E+00  0.00000000E+00  0.00000000E+00
  0.00000000E+00  0.00000000E+00  0.00000000E+00
  0.00000000E+00  0.00000000E+00  0.00000000E+00
  0.00000000E+00  0.00000000E+00  0.00000000E+00
  0.00000000E+00  0.00000000E+00  0.00000000E+00
  0.00000000E+00  0.00000000E+00  0.00000000E+00
  0.00000000E+00  0.00000000E+00  0.00000000E+00
  0.00000000E+00  0.00000000E+00  0.00000000E+00
  0.00000000E+00  0.00000000E+00  0.00000000E+00
  0.00000000E+00  0.00000000E+00  0.00000000E+00
  0.00000000E+00  0.00000000E+00  0.00000000E+00
  0.00000000E+00  0.00000000E+00  0.00000000E+00
  0.00000000E+00  0.00000000E+00  0.00000000E+00
  0.00000000E+00  0.00000000E+00  0.00000000E+00
  0.00000000E+00  0.00000000E+00  0.00000000E+00
  0.00000000E+00  0.00000000E+00  0.00000000E+00
  0.00000000E+00  0.00000000E+00  0.00000000E+00
  0.00000000E+00  0.00000000E+00  0.00000000E+00
  0.00000000E+00  0.00000000E+00  0.00000000E+00
  0.00000000E+00  0.00000000E+00  0.00000000E+00
  0.00000000E+00  0.00000000E+00  0.00000000E+00
  0.00000000E+00  0.00000000E+00  0.00000000E+00
  0.00000000E+00  0.00000000E+00  0.00000000E+00
  0.00000000E+00  0.00000000E+00  0.00000000E+00
  0.00000000E+00  0.00000000E+00  0.00000000E+00
  0.00000000E+00  0.00000000E+00  0.00000000E+00
  0.00000000E+00  0.00000000E+00  0.00000000E+00
  0.00000000E+00  0.00000000E+00  0.00000000E+00
  0.00000000E+00  0.00000000E+00  0.00000000E+00
  0.00000000E+00  0.00000000E+00  0.00000000E+00
  0.00000000E+00  0.00000000E+00  0.00000000E+00
  0.00000000E+00  0.00000000E+00  0.00000000E+00
  0.00000000E+00  0.00000000E+00  0.00000000E+00
  0.00000000E+00  0.00000000E+00  0.00000000E+00
  0.00000000E+00  0.00000000E+00  0.00000000E+00
  0.00000000E+00  0.00000000E+00  0.00000000E+00
  0.00000000E+00  0.00000000E+00  0.00000000E+00
  0.00000000E+00  0.00000000E+00  0.00000000E+00
  0.00000000E+00  0.00000000E+00  0.00000000E+00
  0.00000000E+00  0.00000000E+00  0.00000000E+00
  0.00000000E+00  0.00000000E+00  0.00000000E+00
  0.00000000E+00  0.00000000E+00  0.00000000E+00
  0.00000000E+00  0.00000000E+00  0.00000000E+00
  0.00000000E+00  0.00000000E+00  0.00000000E+00
  0.00000000E+00  0.00000000E+00  0.00000000E+00
  0.00000000E+00  0.00000000E+00  0.00000000E+00
  0.00000000E+00  0.00000000E+00  0.00000000E+00
  0.00000000E+00  0.00000000E+00  0.00000000E+00
  0.00000000E+00  0.00000000E+00  0.00000000E+00
  0.00000000E+00  0.00000000E+00  0.00000000E+00
  0.00000000E+00  0.00000000E+00  0.00000000E+00
  0.00000000E+00  0.00000000E+00  0.00000000E+00
  0.00000000E+00  0.00000000E+00  0.00000000E+00
  0.00000000E+00  0.00000000E+00  0.00000000E+00
  0.00000000E+00  0.00000000E+00  0.00000000E+00
