Pt  C  O  C  O  H                       
    1.000000000000000     
    11.2213408561008308    0.0000000000000000    0.0000000000000000
     1.4026676070126025   10.7740943252779040    0.0000000000000000
     0.0000000000000000    0.0000000000000000   27.7475611781839042
   Pt   C    O    C    O    H 
    56     1     1     1     2     1
Selective dynamics
Direct
  0.0169491525423737  0.8644067796610173  0.3976208246282127   F   F   F
  0.1694915254237301  0.6440677966101660  0.4162352201503552   F   F   F
  0.0720338983050866  0.4237288135593218  0.4348496156724977   F   F   F
  0.2245762711864430  0.2033898305084776  0.4534640111946402   F   F   F
  0.1261341734472378  0.9880824650979513  0.4646238863923575   T   T   T
  0.0284412764800248  0.7704559775367514  0.4944562519462536   T   T   T
  0.1806101432984130  0.5512211642917358  0.5112621736849029   T   T   T
  0.0843878967120811  0.3294334217192739  0.5284313914657042   T   T   T
  0.2363410400569479  0.1074038532617912  0.5408417017228027   T   T   T
  0.1390876420363844  0.8869373068775189  0.5686287612312837   T   T   T
  0.0411760487895181  0.6758311817879810  0.5916435287303609   T   T   T
  0.1902529788826867  0.4565444937449459  0.6033254822983999   T   T   T
  0.0965137191213089  0.2488121894835587  0.6261390021713340   T   T   T
  0.9957874786140926  0.0315987745782767  0.6311899512511108   T   T   T
  0.2669491525423737  0.8644067796610173  0.3976208246282127   F   F   F
  0.4194915254237301  0.6440677966101660  0.4162352201503552   F   F   F
  0.3220338983050866  0.4237288135593218  0.4348496156724977   F   F   F
  0.4745762711864430  0.2033898305084776  0.4534640111946402   F   F   F
  0.3762069553963021  0.9886997247804220  0.4641464193474035   T   T   T
  0.2779537941926042  0.7708591912473944  0.4927603491926237   T   T   T
  0.4303699614979135  0.5511840862973030  0.5107754571415161   T   T   T
  0.3344949266492250  0.3331306023748248  0.5284424502224778   T   T   T
  0.4872219333074262  0.1068705096438868  0.5406919934766585   T   T   T
  0.3898092721258269  0.8870673889460202  0.5665591009678702   T   T   T
  0.2919015923423113  0.6733237017297906  0.5893422247925135   T   T   T
  0.4430958665112005  0.4601500579908971  0.6102661950272081   T   T   T
  0.3443003900398304  0.2496856507091870  0.6218461803554634   T   T   T
  0.2522796631295471  0.0318855787606190  0.6300391127486064   T   T   T
  0.5169491525423737  0.8644067796610173  0.3976208246282127   F   F   F
  0.6694915254237301  0.6440677966101660  0.4162352201503552   F   F   F
  0.5720338983050866  0.4237288135593218  0.4348496156724977   F   F   F
  0.7245762711864430  0.2033898305084776  0.4534640111946402   F   F   F
  0.6264172952959522  0.9891490427223240  0.4644264628585956   T   T   T
  0.5284930735018939  0.7709473827783798  0.4928388395061855   T   T   T
  0.6804412606814029  0.5502970815174096  0.5100274824197807   T   T   T
  0.5813374377215682  0.3332422770182258  0.5288791838938949   T   T   T
  0.7362177060873767  0.1075361463163476  0.5410280553155995   T   T   T
  0.6389284216240341  0.8836814882839142  0.5682940787196047   T   T   T
  0.5415606129634435  0.6724785406083689  0.5899218616297568   T   T   T
  0.6960938210192033  0.4571604559951243  0.6043063991572877   T   T   T
  0.5940023435159725  0.2497901347978837  0.6219392749072197   T   T   T
  0.4959806661876055  0.0352495383907411  0.6307155274714769   T   T   T
  0.7669491525423737  0.8644067796610173  0.3976208246282127   F   F   F
  0.9194915254237301  0.6440677966101660  0.4162352201503552   F   F   F
  0.8220338983050866  0.4237288135593218  0.4348496156724977   F   F   F
  0.9745762711864430  0.2033898305084776  0.4534640111946402   F   F   F
  0.8767544056492399  0.9886168212216574  0.4644935032035731   T   T   T
  0.7786187518194104  0.7724911300764110  0.4923542759117184   T   T   T
  0.9322206881881068  0.5505351791590178  0.5101005438796717   T   T   T
  0.8325670021156949  0.3309135989579438  0.5284952157346269   T   T   T
  0.9858489845787162  0.1068830452286983  0.5409027560780387   T   T   T
  0.8882911832680236  0.8867692002350172  0.5686907408938179   T   T   T
  0.7880120258145893  0.6703683859296206  0.5851119603737109   T   T   T
  0.9414543220281560  0.4597739034435848  0.6018445552783989   T   T   T
  0.8417158521477371  0.2490822165014221  0.6263268477185839   T   T   T
  0.7402941575489755  0.0324322120382510  0.6302979941423941   T   T   T
  0.4202187039964543  0.6330095553846594  0.6443959700505121   T   T   T
  0.4154593405952292  0.6628865126660224  0.6859259690813285   T   T   T
  0.9765599219230625  0.1936079365625933  0.6767222545584640   T   T   T
  0.9759319164953201  0.2000256707149970  0.7197140591777030   T   T   T
  0.0276704205135923  0.7124362344810840  0.6617191340960469   T   T   T
  0.1049957354542922  0.6798623030195449  0.6761888106354375   T   T   T
 
  0.00000000E+00  0.00000000E+00  0.00000000E+00
  0.00000000E+00  0.00000000E+00  0.00000000E+00
  0.00000000E+00  0.00000000E+00  0.00000000E+00
  0.00000000E+00  0.00000000E+00  0.00000000E+00
  0.00000000E+00  0.00000000E+00  0.00000000E+00
  0.00000000E+00  0.00000000E+00  0.00000000E+00
  0.00000000E+00  0.00000000E+00  0.00000000E+00
  0.00000000E+00  0.00000000E+00  0.00000000E+00
  0.00000000E+00  0.00000000E+00  0.00000000E+00
  0.00000000E+00  0.00000000E+00  0.00000000E+00
  0.00000000E+00  0.00000000E+00  0.00000000E+00
  0.00000000E+00  0.00000000E+00  0.00000000E+00
  0.00000000E+00  0.00000000E+00  0.00000000E+00
  0.00000000E+00  0.00000000E+00  0.00000000E+00
  0.00000000E+00  0.00000000E+00  0.00000000E+00
  0.00000000E+00  0.00000000E+00  0.00000000E+00
  0.00000000E+00  0.00000000E+00  0.00000000E+00
  0.00000000E+00  0.00000000E+00  0.00000000E+00
  0.00000000E+00  0.00000000E+00  0.00000000E+00
  0.00000000E+00  0.00000000E+00  0.00000000E+00
  0.00000000E+00  0.00000000E+00  0.00000000E+00
  0.00000000E+00  0.00000000E+00  0.00000000E+00
  0.00000000E+00  0.00000000E+00  0.00000000E+00
  0.00000000E+00  0.00000000E+00  0.00000000E+00
  0.00000000E+00  0.00000000E+00  0.00000000E+00
  0.00000000E+00  0.00000000E+00  0.00000000E+00
  0.00000000E+00  0.00000000E+00  0.00000000E+00
  0.00000000E+00  0.00000000E+00  0.00000000E+00
  0.00000000E+00  0.00000000E+00  0.00000000E+00
  0.00000000E+00  0.00000000E+00  0.00000000E+00
  0.00000000E+00  0.00000000E+00  0.00000000E+00
  0.00000000E+00  0.00000000E+00  0.00000000E+00
  0.00000000E+00  0.00000000E+00  0.00000000E+00
  0.00000000E+00  0.00000000E+00  0.00000000E+00
  0.00000000E+00  0.00000000E+00  0.00000000E+00
  0.00000000E+00  0.00000000E+00  0.00000000E+00
  0.00000000E+00  0.00000000E+00  0.00000000E+00
  0.00000000E+00  0.00000000E+00  0.00000000E+00
  0.00000000E+00  0.00000000E+00  0.00000000E+00
  0.00000000E+00  0.00000000E+00  0.00000000E+00
  0.00000000E+00  0.00000000E+00  0.00000000E+00
  0.00000000E+00  0.00000000E+00  0.00000000E+00
  0.00000000E+00  0.00000000E+00  0.00000000E+00
  0.00000000E+00  0.00000000E+00  0.00000000E+00
  0.00000000E+00  0.00000000E+00  0.00000000E+00
  0.00000000E+00  0.00000000E+00  0.00000000E+00
  0.00000000E+00  0.00000000E+00  0.00000000E+00
  0.00000000E+00  0.00000000E+00  0.00000000E+00
  0.00000000E+00  0.00000000E+00  0.00000000E+00
  0.00000000E+00  0.00000000E+00  0.00000000E+00
  0.00000000E+00  0.00000000E+00  0.00000000E+00
  0.00000000E+00  0.00000000E+00  0.00000000E+00
  0.00000000E+00  0.00000000E+00  0.00000000E+00
  0.00000000E+00  0.00000000E+00  0.00000000E+00
  0.00000000E+00  0.00000000E+00  0.00000000E+00
  0.00000000E+00  0.00000000E+00  0.00000000E+00
  0.00000000E+00  0.00000000E+00  0.00000000E+00
  0.00000000E+00  0.00000000E+00  0.00000000E+00
  0.00000000E+00  0.00000000E+00  0.00000000E+00
  0.00000000E+00  0.00000000E+00  0.00000000E+00
  0.00000000E+00  0.00000000E+00  0.00000000E+00
  0.00000000E+00  0.00000000E+00  0.00000000E+00
