Pt  C  O  C  O  H                       
    1.000000000000000     
    11.2213408561008308    0.0000000000000000    0.0000000000000000
     1.4026676070126025   10.7740943252779040    0.0000000000000000
     0.0000000000000000    0.0000000000000000   27.7475611781839042
   Pt   C    O    C    O    H 
    56     1     1     1     2     1
Selective dynamics
Direct
  0.0169491525423737  0.8644067796610173  0.3976208246282127   F   F   F
  0.1694915254237301  0.6440677966101660  0.4162352201503552   F   F   F
  0.0720338983050866  0.4237288135593218  0.4348496156724977   F   F   F
  0.2245762711864430  0.2033898305084776  0.4534640111946402   F   F   F
  0.1266534835071055  0.9880173790407454  0.4646958211010884   T   T   T
  0.0286839249937666  0.7692355551581433  0.4925029639607056   T   T   T
  0.1818338244647985  0.5469660253378535  0.5091916994631331   T   T   T
  0.0849724373562244  0.3282572171614168  0.5288076392197323   T   T   T
  0.2362349099483587  0.1049388794132022  0.5411168119667471   T   T   T
  0.1396036887946147  0.8798387614906257  0.5682129643867330   T   T   T
  0.0426566821449656  0.6629979022826474  0.5860767507422118   T   T   T
  0.1964951018219604  0.4532146614229493  0.6033961554768321   T   T   T
  0.0991997591928323  0.2415562704237035  0.6256730800707431   T   T   T
  0.9992357823570531  0.0234916867348022  0.6309931505098592   T   T   T
  0.2669491525423737  0.8644067796610173  0.3976208246282127   F   F   F
  0.4194915254237301  0.6440677966101660  0.4162352201503552   F   F   F
  0.3220338983050866  0.4237288135593218  0.4348496156724977   F   F   F
  0.4745762711864430  0.2033898305084776  0.4534640111946402   F   F   F
  0.3780480296254702  0.9882587197903986  0.4652226930520305   T   T   T
  0.2784605011999778  0.7710484172862156  0.4921042153114683   T   T   T
  0.4310315532482342  0.5510161508890109  0.5102365882785195   T   T   T
  0.3363706751116901  0.3313416882140116  0.5285532698864966   T   T   T
  0.4851464132424819  0.1037897446562952  0.5431429306390481   T   T   T
  0.3892084738010277  0.8819639572337511  0.5690407496443849   T   T   T
  0.2884225278592560  0.6680051827853953  0.5846331310862692   T   T   T
  0.4422319069631637  0.4576565750899106  0.6094622472559200   T   T   T
  0.3478954909734949  0.2407437608111830  0.6207201180781168   T   T   T
  0.2470765467234224  0.0276699687109129  0.6310415042280291   T   T   T
  0.5169491525423737  0.8644067796610173  0.3976208246282127   F   F   F
  0.6694915254237301  0.6440677966101660  0.4162352201503552   F   F   F
  0.5720338983050866  0.4237288135593218  0.4348496156724977   F   F   F
  0.7245762711864430  0.2033898305084776  0.4534640111946402   F   F   F
  0.6262086570620394  0.9896977952951057  0.4652514104083352   T   T   T
  0.5285944600385736  0.7703330915834128  0.4936069965467049   T   T   T
  0.6805299971649669  0.5519211271333175  0.5094795344585634   T   T   T
  0.5829436208073132  0.3322931164412565  0.5267268220952791   T   T   T
  0.7417338900361958  0.1044266294858077  0.5434407189034935   T   T   T
  0.6409209119431851  0.8808781733994760  0.5670383246405533   T   T   T
  0.5418266904506381  0.6710639171390566  0.5917382174827052   T   T   T
  0.6962537421572943  0.4517745088456412  0.6016525453651826   T   T   T
  0.5962300361589544  0.2416916335849770  0.6177855524593241   T   T   T
  0.5007993484956992  0.0252278736469511  0.6335242237137559   T   T   T
  0.7669491525423737  0.8644067796610173  0.3976208246282127   F   F   F
  0.9194915254237301  0.6440677966101660  0.4162352201503552   F   F   F
  0.8220338983050866  0.4237288135593218  0.4348496156724977   F   F   F
  0.9745762711864430  0.2033898305084776  0.4534640111946402   F   F   F
  0.8755833627540469  0.9880496048671007  0.4653594508588710   T   T   T
  0.7797044253058877  0.7701678676109011  0.4922899088425824   T   T   T
  0.9325054156064658  0.5455414968467271  0.5106565898059248   T   T   T
  0.8341118240026598  0.3288542934492368  0.5276770665969593   T   T   T
  0.9888647034241326  0.1029381601405102  0.5414485081923505   T   T   T
  0.8911592639458770  0.8785277162083253  0.5694656862151926   T   T   T
  0.7940951004573134  0.6641545550873682  0.5856965169632331   T   T   T
  0.9442478308465890  0.4562981589140560  0.6082219101163222   T   T   T
  0.8447726491790785  0.2388694938024386  0.6237656515341458   T   T   T
  0.7448025751460630  0.0232540505793398  0.6332330867879342   T   T   T
  0.4947527379993771  0.5901360489866654  0.6527071972279673   T   T   T
  0.4939716384121986  0.6121743873651196  0.6944880641367790   T   T   T
  0.9576644882833407  0.3340129903595837  0.6669286957975428   T   T   T
  0.9540810540033625  0.3520718164467948  0.7094586956660373   T   T   T
  0.6278925550017100  0.9654301691599619  0.6891911123523160   T   T   T
  0.6371701383378077  0.8744696980625981  0.6897232358857758   T   T   T
 
  0.00000000E+00  0.00000000E+00  0.00000000E+00
  0.00000000E+00  0.00000000E+00  0.00000000E+00
  0.00000000E+00  0.00000000E+00  0.00000000E+00
  0.00000000E+00  0.00000000E+00  0.00000000E+00
  0.00000000E+00  0.00000000E+00  0.00000000E+00
  0.00000000E+00  0.00000000E+00  0.00000000E+00
  0.00000000E+00  0.00000000E+00  0.00000000E+00
  0.00000000E+00  0.00000000E+00  0.00000000E+00
  0.00000000E+00  0.00000000E+00  0.00000000E+00
  0.00000000E+00  0.00000000E+00  0.00000000E+00
  0.00000000E+00  0.00000000E+00  0.00000000E+00
  0.00000000E+00  0.00000000E+00  0.00000000E+00
  0.00000000E+00  0.00000000E+00  0.00000000E+00
  0.00000000E+00  0.00000000E+00  0.00000000E+00
  0.00000000E+00  0.00000000E+00  0.00000000E+00
  0.00000000E+00  0.00000000E+00  0.00000000E+00
  0.00000000E+00  0.00000000E+00  0.00000000E+00
  0.00000000E+00  0.00000000E+00  0.00000000E+00
  0.00000000E+00  0.00000000E+00  0.00000000E+00
  0.00000000E+00  0.00000000E+00  0.00000000E+00
  0.00000000E+00  0.00000000E+00  0.00000000E+00
  0.00000000E+00  0.00000000E+00  0.00000000E+00
  0.00000000E+00  0.00000000E+00  0.00000000E+00
  0.00000000E+00  0.00000000E+00  0.00000000E+00
  0.00000000E+00  0.00000000E+00  0.00000000E+00
  0.00000000E+00  0.00000000E+00  0.00000000E+00
  0.00000000E+00  0.00000000E+00  0.00000000E+00
  0.00000000E+00  0.00000000E+00  0.00000000E+00
  0.00000000E+00  0.00000000E+00  0.00000000E+00
  0.00000000E+00  0.00000000E+00  0.00000000E+00
  0.00000000E+00  0.00000000E+00  0.00000000E+00
  0.00000000E+00  0.00000000E+00  0.00000000E+00
  0.00000000E+00  0.00000000E+00  0.00000000E+00
  0.00000000E+00  0.00000000E+00  0.00000000E+00
  0.00000000E+00  0.00000000E+00  0.00000000E+00
  0.00000000E+00  0.00000000E+00  0.00000000E+00
  0.00000000E+00  0.00000000E+00  0.00000000E+00
  0.00000000E+00  0.00000000E+00  0.00000000E+00
  0.00000000E+00  0.00000000E+00  0.00000000E+00
  0.00000000E+00  0.00000000E+00  0.00000000E+00
  0.00000000E+00  0.00000000E+00  0.00000000E+00
  0.00000000E+00  0.00000000E+00  0.00000000E+00
  0.00000000E+00  0.00000000E+00  0.00000000E+00
  0.00000000E+00  0.00000000E+00  0.00000000E+00
  0.00000000E+00  0.00000000E+00  0.00000000E+00
  0.00000000E+00  0.00000000E+00  0.00000000E+00
  0.00000000E+00  0.00000000E+00  0.00000000E+00
  0.00000000E+00  0.00000000E+00  0.00000000E+00
  0.00000000E+00  0.00000000E+00  0.00000000E+00
  0.00000000E+00  0.00000000E+00  0.00000000E+00
  0.00000000E+00  0.00000000E+00  0.00000000E+00
  0.00000000E+00  0.00000000E+00  0.00000000E+00
  0.00000000E+00  0.00000000E+00  0.00000000E+00
  0.00000000E+00  0.00000000E+00  0.00000000E+00
  0.00000000E+00  0.00000000E+00  0.00000000E+00
  0.00000000E+00  0.00000000E+00  0.00000000E+00
  0.00000000E+00  0.00000000E+00  0.00000000E+00
  0.00000000E+00  0.00000000E+00  0.00000000E+00
  0.00000000E+00  0.00000000E+00  0.00000000E+00
  0.00000000E+00  0.00000000E+00  0.00000000E+00
  0.00000000E+00  0.00000000E+00  0.00000000E+00
  0.00000000E+00  0.00000000E+00  0.00000000E+00
