Pt  C  O  C  O  H                       
    1.000000000000000     
    11.2213408561008308    0.0000000000000000    0.0000000000000000
     1.4026676070126025   10.7740943252779040    0.0000000000000000
     0.0000000000000000    0.0000000000000000   27.7475611781839042
   Pt   C    O    C    O    H 
    56     1     1     1     2     1
Selective dynamics
Direct
  0.0169491525423737  0.8644067796610173  0.3976208246282127   F   F   F
  0.1694915254237301  0.6440677966101660  0.4162352201503552   F   F   F
  0.0720338983050866  0.4237288135593218  0.4348496156724977   F   F   F
  0.2245762711864430  0.2033898305084776  0.4534640111946402   F   F   F
  0.1261534508065169  0.9889125431595513  0.4646764159016819   T   T   T
  0.0276607786914528  0.7714067109085828  0.4925016874976499   T   T   T
  0.1807320478446871  0.5482967244595833  0.5086050075709830   T   T   T
  0.0840632524582305  0.3295639747999261  0.5271282122716020   T   T   T
  0.2375828201673466  0.1065547180315497  0.5406410519829045   T   T   T
  0.1361556969350795  0.8835112905081034  0.5684641721596199   T   T   T
  0.0396671162989782  0.6669938164845834  0.5852320964749156   T   T   T
  0.1903347196205746  0.4578010627509669  0.6032525584824160   T   T   T
  0.0968944351521937  0.2461063646787219  0.6197425245017524   T   T   T
  0.0013878190851976  0.0294715216899104  0.6332545389370572   T   T   T
  0.2669491525423737  0.8644067796610173  0.3976208246282127   F   F   F
  0.4194915254237301  0.6440677966101660  0.4162352201503552   F   F   F
  0.3220338983050866  0.4237288135593218  0.4348496156724977   F   F   F
  0.4745762711864430  0.2033898305084776  0.4534640111946402   F   F   F
  0.3767952903842107  0.9880621069102054  0.4648965402942113   T   T   T
  0.2786213478493105  0.7713012208374203  0.4918703687048499   T   T   T
  0.4312677634698128  0.5493476438179725  0.5102890403686963   T   T   T
  0.3348673966200537  0.3318576749574638  0.5324980330868896   T   T   T
  0.4871509234102761  0.1057615824402879  0.5411026639815574   T   T   T
  0.3892999515138884  0.8829319171329564  0.5676997259114268   T   T   T
  0.2858726132674743  0.6697161428263227  0.5834584969736868   T   T   T
  0.4410762539758804  0.4624980688295563  0.6100791406008359   T   T   T
  0.3449673392343546  0.2510613314675473  0.6267073886200270   T   T   T
  0.2464478382563826  0.0298525675388050  0.6296353466104114   T   T   T
  0.5169491525423737  0.8644067796610173  0.3976208246282127   F   F   F
  0.6694915254237301  0.6440677966101660  0.4162352201503552   F   F   F
  0.5720338983050866  0.4237288135593218  0.4348496156724977   F   F   F
  0.7245762711864430  0.2033898305084776  0.4534640111946402   F   F   F
  0.6262324795285930  0.9880686923047670  0.4647204335155073   T   T   T
  0.5279286857231346  0.7697684065128473  0.4937316475403090   T   T   T
  0.6801202830965224  0.5497968822039033  0.5102710615414402   T   T   T
  0.5820652657985671  0.3316880014427278  0.5282585775581541   T   T   T
  0.7365138521388626  0.1035937584846641  0.5413116600654595   T   T   T
  0.6408569881428804  0.8808375353051450  0.5700930237558377   T   T   T
  0.5416711350715251  0.6721163644514384  0.5920258820634954   T   T   T
  0.6992176264146084  0.4526031859240902  0.6036753163444293   T   T   T
  0.5928010509396999  0.2466367708636666  0.6204352859886983   T   T   T
  0.4950428799762113  0.0303704001258856  0.6302353007471926   T   T   T
  0.7669491525423737  0.8644067796610173  0.3976208246282127   F   F   F
  0.9194915254237301  0.6440677966101660  0.4162352201503552   F   F   F
  0.8220338983050866  0.4237288135593218  0.4348496156724977   F   F   F
  0.9745762711864430  0.2033898305084776  0.4534640111946402   F   F   F
  0.8763118320425639  0.9879535181729763  0.4652299108325487   T   T   T
  0.7773063803268410  0.7714337884188973  0.4929709980785721   T   T   T
  0.9294887433571617  0.5470126410583140  0.5093438157905902   T   T   T
  0.8330475463749997  0.3280207699630430  0.5288331186925153   T   T   T
  0.9866532729681470  0.1041537718945833  0.5415194708334634   T   T   T
  0.8885512507412470  0.8821135438041023  0.5692447007722420   T   T   T
  0.7936073106393878  0.6664405261105854  0.5862066318651322   T   T   T
  0.9432055990730757  0.4543434325737061  0.6040249877385462   T   T   T
  0.8452527485322366  0.2455563717716693  0.6266270115517535   T   T   T
  0.7416900965134231  0.0301026600874011  0.6330886846023589   T   T   T
  0.4947074890268138  0.5929104343590696  0.6534055769523368   T   T   T
  0.4934380053994545  0.6148185250364890  0.6952193591505121   T   T   T
  0.8625495690682273  0.1083649363673047  0.6794320524334261   T   T   T
  0.8620226852697729  0.1054050964387042  0.7225641657132907   T   T   T
  0.3494162935091247  0.2360363296162879  0.6983391258238834   T   T   T
  0.4079336008288541  0.2896293105772799  0.7092483478514223   T   T   T
 
  0.00000000E+00  0.00000000E+00  0.00000000E+00
  0.00000000E+00  0.00000000E+00  0.00000000E+00
  0.00000000E+00  0.00000000E+00  0.00000000E+00
  0.00000000E+00  0.00000000E+00  0.00000000E+00
  0.00000000E+00  0.00000000E+00  0.00000000E+00
  0.00000000E+00  0.00000000E+00  0.00000000E+00
  0.00000000E+00  0.00000000E+00  0.00000000E+00
  0.00000000E+00  0.00000000E+00  0.00000000E+00
  0.00000000E+00  0.00000000E+00  0.00000000E+00
  0.00000000E+00  0.00000000E+00  0.00000000E+00
  0.00000000E+00  0.00000000E+00  0.00000000E+00
  0.00000000E+00  0.00000000E+00  0.00000000E+00
  0.00000000E+00  0.00000000E+00  0.00000000E+00
  0.00000000E+00  0.00000000E+00  0.00000000E+00
  0.00000000E+00  0.00000000E+00  0.00000000E+00
  0.00000000E+00  0.00000000E+00  0.00000000E+00
  0.00000000E+00  0.00000000E+00  0.00000000E+00
  0.00000000E+00  0.00000000E+00  0.00000000E+00
  0.00000000E+00  0.00000000E+00  0.00000000E+00
  0.00000000E+00  0.00000000E+00  0.00000000E+00
  0.00000000E+00  0.00000000E+00  0.00000000E+00
  0.00000000E+00  0.00000000E+00  0.00000000E+00
  0.00000000E+00  0.00000000E+00  0.00000000E+00
  0.00000000E+00  0.00000000E+00  0.00000000E+00
  0.00000000E+00  0.00000000E+00  0.00000000E+00
  0.00000000E+00  0.00000000E+00  0.00000000E+00
  0.00000000E+00  0.00000000E+00  0.00000000E+00
  0.00000000E+00  0.00000000E+00  0.00000000E+00
  0.00000000E+00  0.00000000E+00  0.00000000E+00
  0.00000000E+00  0.00000000E+00  0.00000000E+00
  0.00000000E+00  0.00000000E+00  0.00000000E+00
  0.00000000E+00  0.00000000E+00  0.00000000E+00
  0.00000000E+00  0.00000000E+00  0.00000000E+00
  0.00000000E+00  0.00000000E+00  0.00000000E+00
  0.00000000E+00  0.00000000E+00  0.00000000E+00
  0.00000000E+00  0.00000000E+00  0.00000000E+00
  0.00000000E+00  0.00000000E+00  0.00000000E+00
  0.00000000E+00  0.00000000E+00  0.00000000E+00
  0.00000000E+00  0.00000000E+00  0.00000000E+00
  0.00000000E+00  0.00000000E+00  0.00000000E+00
  0.00000000E+00  0.00000000E+00  0.00000000E+00
  0.00000000E+00  0.00000000E+00  0.00000000E+00
  0.00000000E+00  0.00000000E+00  0.00000000E+00
  0.00000000E+00  0.00000000E+00  0.00000000E+00
  0.00000000E+00  0.00000000E+00  0.00000000E+00
  0.00000000E+00  0.00000000E+00  0.00000000E+00
  0.00000000E+00  0.00000000E+00  0.00000000E+00
  0.00000000E+00  0.00000000E+00  0.00000000E+00
  0.00000000E+00  0.00000000E+00  0.00000000E+00
  0.00000000E+00  0.00000000E+00  0.00000000E+00
  0.00000000E+00  0.00000000E+00  0.00000000E+00
  0.00000000E+00  0.00000000E+00  0.00000000E+00
  0.00000000E+00  0.00000000E+00  0.00000000E+00
  0.00000000E+00  0.00000000E+00  0.00000000E+00
  0.00000000E+00  0.00000000E+00  0.00000000E+00
  0.00000000E+00  0.00000000E+00  0.00000000E+00
  0.00000000E+00  0.00000000E+00  0.00000000E+00
  0.00000000E+00  0.00000000E+00  0.00000000E+00
  0.00000000E+00  0.00000000E+00  0.00000000E+00
  0.00000000E+00  0.00000000E+00  0.00000000E+00
  0.00000000E+00  0.00000000E+00  0.00000000E+00
  0.00000000E+00  0.00000000E+00  0.00000000E+00
