Pt  C  O  C  O  H                       
    1.000000000000000     
    11.2213408561008308    0.0000000000000000    0.0000000000000000
     1.4026676070126025   10.7740943252779040    0.0000000000000000
     0.0000000000000000    0.0000000000000000   27.7475611781839042
   Pt   C    O    C    O    H 
    56     1     1     1     2     1
Selective dynamics
Direct
  0.0169491525423737  0.8644067796610173  0.3976208246282127   F   F   F
  0.1694915254237301  0.6440677966101660  0.4162352201503552   F   F   F
  0.0720338983050866  0.4237288135593218  0.4348496156724977   F   F   F
  0.2245762711864430  0.2033898305084776  0.4534640111946402   F   F   F
  0.1254420538477470  0.9882132619698700  0.4657588646931530   T   T   T
  0.0278053460635654  0.7713846579533723  0.4927264762977096   T   T   T
  0.1807720220230891  0.5505217292286078  0.5092840597622175   T   T   T
  0.0836952536333293  0.3288950864856470  0.5265999697163165   T   T   T
  0.2376877318255186  0.0998807556219361  0.5408246144330892   T   T   T
  0.1396430271413873  0.8768100820976416  0.5692453166424395   T   T   T
  0.0413829839199889  0.6628026378043255  0.5865844911109662   T   T   T
  0.1920066297986765  0.4527462196286596  0.6026087804800108   T   T   T
  0.0951454154156007  0.2371840825617400  0.6181716180467450   T   T   T
  0.9973971970581454  0.0186779120118868  0.6363432304013693   T   T   T
  0.2669491525423737  0.8644067796610173  0.3976208246282127   F   F   F
  0.4194915254237301  0.6440677966101660  0.4162352201503552   F   F   F
  0.3220338983050866  0.4237288135593218  0.4348496156724977   F   F   F
  0.4745762711864430  0.2033898305084776  0.4534640111946402   F   F   F
  0.3775062690593413  0.9889526078498354  0.4652122219374244   T   T   T
  0.2778526705813379  0.7714597656578327  0.4922970420340383   T   T   T
  0.4307196570392612  0.5494404470565686  0.5088780667367429   T   T   T
  0.3329019304288244  0.3281376472789783  0.5264571727904899   T   T   T
  0.4874373507094956  0.1017592106658173  0.5455431705070996   T   T   T
  0.3897679092176654  0.8769895099614121  0.5687527215055285   T   T   T
  0.2909203221311977  0.6640479274567224  0.5865438390226981   T   T   T
  0.4405764923735300  0.4513027301401886  0.6018977922729923   T   T   T
  0.3407383536862597  0.2372967937606850  0.6178480630879952   T   T   T
  0.2463161156982928  0.0221338947301086  0.6314682122708714   T   T   T
  0.5169491525423737  0.8644067796610173  0.3976208246282127   F   F   F
  0.6694915254237301  0.6440677966101660  0.4162352201503552   F   F   F
  0.5720338983050866  0.4237288135593218  0.4348496156724977   F   F   F
  0.7245762711864430  0.2033898305084776  0.4534640111946402   F   F   F
  0.6256434987424726  0.9885606324794497  0.4661297269108198   T   T   T
  0.5278064340851877  0.7717391988674591  0.4925710369665776   T   T   T
  0.6809808325521305  0.5492399172991315  0.5087397979491611   T   T   T
  0.5823075442889409  0.3264877511522972  0.5288330894645631   T   T   T
  0.7366901022043558  0.1032663784398435  0.5416635273218774   T   T   T
  0.6399036674441472  0.8774809210444969  0.5687218181860099   T   T   T
  0.5417512698944074  0.6621328165375752  0.5855620504768526   T   T   T
  0.6948910073377573  0.4517664532711758  0.6009398457557592   T   T   T
  0.5950714876647560  0.2423460610147873  0.6234727456382437   T   T   T
  0.4964030470309447  0.0190274571320922  0.6353235165162966   T   T   T
  0.7669491525423737  0.8644067796610173  0.3976208246282127   F   F   F
  0.9194915254237301  0.6440677966101660  0.4162352201503552   F   F   F
  0.8220338983050866  0.4237288135593218  0.4348496156724977   F   F   F
  0.9745762711864430  0.2033898305084776  0.4534640111946402   F   F   F
  0.8764584305486343  0.9889877420681829  0.4657610677590787   T   T   T
  0.7781840438805427  0.7711964935013281  0.4921869865627587   T   T   T
  0.9309184377471160  0.5494052427253482  0.5094569999190703   T   T   T
  0.8350328368459564  0.3277108767474790  0.5265653170108873   T   T   T
  0.9877088105028488  0.0989031770791794  0.5447206307249685   T   T   T
  0.8902467336004564  0.8764404815564658  0.5691952505647062   T   T   T
  0.7927215149557656  0.6632860202053151  0.5863075224124553   T   T   T
  0.9443750638310660  0.4511734123201436  0.6037901578456539   T   T   T
  0.8489173584005967  0.2372385504606848  0.6181629612813928   T   T   T
  0.7474935586049639  0.0224385952540208  0.6305900540164355   T   T   T
  0.5035854618878367  0.9601079486574093  0.6983841286273282   T   T   T
  0.5083857218839667  0.9213986562336715  0.7373647463981603   T   T   T
  0.0045593950288898  0.9594531710495429  0.6989931940261634   T   T   T
  0.0089396897942119  0.9209593324319291  0.7380758769397620   T   T   T
  0.5968786705600688  0.2685803348125835  0.6941246164161643   T   T   T
  0.6772159910383311  0.2896617275582307  0.7017721290186381   T   T   T
 
  0.00000000E+00  0.00000000E+00  0.00000000E+00
  0.00000000E+00  0.00000000E+00  0.00000000E+00
  0.00000000E+00  0.00000000E+00  0.00000000E+00
  0.00000000E+00  0.00000000E+00  0.00000000E+00
  0.00000000E+00  0.00000000E+00  0.00000000E+00
  0.00000000E+00  0.00000000E+00  0.00000000E+00
  0.00000000E+00  0.00000000E+00  0.00000000E+00
  0.00000000E+00  0.00000000E+00  0.00000000E+00
  0.00000000E+00  0.00000000E+00  0.00000000E+00
  0.00000000E+00  0.00000000E+00  0.00000000E+00
  0.00000000E+00  0.00000000E+00  0.00000000E+00
  0.00000000E+00  0.00000000E+00  0.00000000E+00
  0.00000000E+00  0.00000000E+00  0.00000000E+00
  0.00000000E+00  0.00000000E+00  0.00000000E+00
  0.00000000E+00  0.00000000E+00  0.00000000E+00
  0.00000000E+00  0.00000000E+00  0.00000000E+00
  0.00000000E+00  0.00000000E+00  0.00000000E+00
  0.00000000E+00  0.00000000E+00  0.00000000E+00
  0.00000000E+00  0.00000000E+00  0.00000000E+00
  0.00000000E+00  0.00000000E+00  0.00000000E+00
  0.00000000E+00  0.00000000E+00  0.00000000E+00
  0.00000000E+00  0.00000000E+00  0.00000000E+00
  0.00000000E+00  0.00000000E+00  0.00000000E+00
  0.00000000E+00  0.00000000E+00  0.00000000E+00
  0.00000000E+00  0.00000000E+00  0.00000000E+00
  0.00000000E+00  0.00000000E+00  0.00000000E+00
  0.00000000E+00  0.00000000E+00  0.00000000E+00
  0.00000000E+00  0.00000000E+00  0.00000000E+00
  0.00000000E+00  0.00000000E+00  0.00000000E+00
  0.00000000E+00  0.00000000E+00  0.00000000E+00
  0.00000000E+00  0.00000000E+00  0.00000000E+00
  0.00000000E+00  0.00000000E+00  0.00000000E+00
  0.00000000E+00  0.00000000E+00  0.00000000E+00
  0.00000000E+00  0.00000000E+00  0.00000000E+00
  0.00000000E+00  0.00000000E+00  0.00000000E+00
  0.00000000E+00  0.00000000E+00  0.00000000E+00
  0.00000000E+00  0.00000000E+00  0.00000000E+00
  0.00000000E+00  0.00000000E+00  0.00000000E+00
  0.00000000E+00  0.00000000E+00  0.00000000E+00
  0.00000000E+00  0.00000000E+00  0.00000000E+00
  0.00000000E+00  0.00000000E+00  0.00000000E+00
  0.00000000E+00  0.00000000E+00  0.00000000E+00
  0.00000000E+00  0.00000000E+00  0.00000000E+00
  0.00000000E+00  0.00000000E+00  0.00000000E+00
  0.00000000E+00  0.00000000E+00  0.00000000E+00
  0.00000000E+00  0.00000000E+00  0.00000000E+00
  0.00000000E+00  0.00000000E+00  0.00000000E+00
  0.00000000E+00  0.00000000E+00  0.00000000E+00
  0.00000000E+00  0.00000000E+00  0.00000000E+00
  0.00000000E+00  0.00000000E+00  0.00000000E+00
  0.00000000E+00  0.00000000E+00  0.00000000E+00
  0.00000000E+00  0.00000000E+00  0.00000000E+00
  0.00000000E+00  0.00000000E+00  0.00000000E+00
  0.00000000E+00  0.00000000E+00  0.00000000E+00
  0.00000000E+00  0.00000000E+00  0.00000000E+00
  0.00000000E+00  0.00000000E+00  0.00000000E+00
  0.00000000E+00  0.00000000E+00  0.00000000E+00
  0.00000000E+00  0.00000000E+00  0.00000000E+00
  0.00000000E+00  0.00000000E+00  0.00000000E+00
  0.00000000E+00  0.00000000E+00  0.00000000E+00
  0.00000000E+00  0.00000000E+00  0.00000000E+00
  0.00000000E+00  0.00000000E+00  0.00000000E+00
