Pt  C  O  C  O  H                       
    1.000000000000000     
    11.2213408561008308    0.0000000000000000    0.0000000000000000
     1.4026676070126025   10.7740943252779040    0.0000000000000000
     0.0000000000000000    0.0000000000000000   27.7475611781839042
   Pt   C    O    C    O    H 
    56     1     1     1     2     1
Selective dynamics
Direct
  0.0169491525423737  0.8644067796610173  0.3976208246282127   F   F   F
  0.1694915254237301  0.6440677966101660  0.4162352201503552   F   F   F
  0.0720338983050866  0.4237288135593218  0.4348496156724977   F   F   F
  0.2245762711864430  0.2033898305084776  0.4534640111946402   F   F   F
  0.1265106423499210  0.9871831357691746  0.4653507755021010   T   T   T
  0.0286913111985149  0.7702275933891070  0.4928657699719308   T   T   T
  0.1816262237354841  0.5458183566796626  0.5094418986014296   T   T   T
  0.0847076822574679  0.3251530406633617  0.5290909093628106   T   T   T
  0.2370528077064126  0.1010667893848486  0.5412253279567745   T   T   T
  0.1396070333095771  0.8795839396242140  0.5694694926750873   T   T   T
  0.0428792971078745  0.6616838561669562  0.5863947591849034   T   T   T
  0.1943167932114271  0.4487129622961955  0.6035297995391572   T   T   T
  0.0946732068250064  0.2423584145356157  0.6264396823563920   T   T   T
  0.9911565458732731  0.0271103614777461  0.6338185915825899   T   T   T
  0.2669491525423737  0.8644067796610173  0.3976208246282127   F   F   F
  0.4194915254237301  0.6440677966101660  0.4162352201503552   F   F   F
  0.3220338983050866  0.4237288135593218  0.4348496156724977   F   F   F
  0.4745762711864430  0.2033898305084776  0.4534640111946402   F   F   F
  0.3777121379145617  0.9873773996943521  0.4654051464012955   T   T   T
  0.2782041224247054  0.7702541374483781  0.4927412366874394   T   T   T
  0.4309059209431263  0.5505943673947202  0.5105167354105761   T   T   T
  0.3365877237329033  0.3298266408145702  0.5278697313594465   T   T   T
  0.4851299076723956  0.1029398486689215  0.5429237512322906   T   T   T
  0.3878331560204915  0.8783218430000174  0.5701740115243947   T   T   T
  0.2880952040228079  0.6646313347948848  0.5857341972393907   T   T   T
  0.4412955885079721  0.4565351828020588  0.6083894383513399   T   T   T
  0.3520576109069477  0.2399460277574459  0.6194114643647657   T   T   T
  0.2519303575286519  0.0270791818734799  0.6333601529810060   T   T   T
  0.5169491525423737  0.8644067796610173  0.3976208246282127   F   F   F
  0.6694915254237301  0.6440677966101660  0.4162352201503552   F   F   F
  0.5720338983050866  0.4237288135593218  0.4348496156724977   F   F   F
  0.7245762711864430  0.2033898305084776  0.4534640111946402   F   F   F
  0.6261788488073060  0.9896197998486591  0.4655141717508972   T   T   T
  0.5287575587998383  0.7694506094841269  0.4930684079013254   T   T   T
  0.6806098699594970  0.5511427537937160  0.5101860669601781   T   T   T
  0.5836878319021666  0.3330750021461871  0.5270557441587461   T   T   T
  0.7403052532974232  0.1022848057139312  0.5428833478797853   T   T   T
  0.6404593383986056  0.8799592584378050  0.5661552172777619   T   T   T
  0.5421702960549101  0.6702854138804554  0.5901587916924622   T   T   T
  0.6958936403667090  0.4557366007057637  0.6077266646801971   T   T   T
  0.5952787390836111  0.2401884815564225  0.6175375424929713   T   T   T
  0.5016019461492301  0.0220801776411830  0.6334144632895955   T   T   T
  0.7669491525423737  0.8644067796610173  0.3976208246282127   F   F   F
  0.9194915254237301  0.6440677966101660  0.4162352201503552   F   F   F
  0.8220338983050866  0.4237288135593218  0.4348496156724977   F   F   F
  0.9745762711864430  0.2033898305084776  0.4534640111946402   F   F   F
  0.8761403555653993  0.9883169823547139  0.4650265090071454   T   T   T
  0.7795152714098973  0.7701187309044637  0.4919905788857212   T   T   T
  0.9334898388469428  0.5458972414762236  0.5092368053914532   T   T   T
  0.8317016516636550  0.3307045225186651  0.5275615678782549   T   T   T
  0.9884291776487196  0.1016044779127008  0.5416357597555891   T   T   T
  0.8933611695004593  0.8784911152589306  0.5700546953619848   T   T   T
  0.7963153529116933  0.6648251743170670  0.5846071669417265   T   T   T
  0.9448399965988087  0.4492665391692465  0.6037721042862074   T   T   T
  0.8387470349130938  0.2399268334523871  0.6189744595434208   T   T   T
  0.7432359725443565  0.0212844237370109  0.6332641059237456   T   T   T
  0.5572671975315300  0.5531641428756933  0.6499845408664860   T   T   T
  0.5559358731014210  0.5750825096406890  0.6922825486129562   T   T   T
  0.1119802602432244  0.1062271866884878  0.6794494998959030   T   T   T
  0.1131589815585677  0.1038906790536028  0.7226047472451803   T   T   T
  0.6304932209165741  0.9554512632124175  0.6878830554264390   T   T   T
  0.6406320748068812  0.8643605096906064  0.6864579961892328   T   T   T
 
  0.00000000E+00  0.00000000E+00  0.00000000E+00
  0.00000000E+00  0.00000000E+00  0.00000000E+00
  0.00000000E+00  0.00000000E+00  0.00000000E+00
  0.00000000E+00  0.00000000E+00  0.00000000E+00
  0.00000000E+00  0.00000000E+00  0.00000000E+00
  0.00000000E+00  0.00000000E+00  0.00000000E+00
  0.00000000E+00  0.00000000E+00  0.00000000E+00
  0.00000000E+00  0.00000000E+00  0.00000000E+00
  0.00000000E+00  0.00000000E+00  0.00000000E+00
  0.00000000E+00  0.00000000E+00  0.00000000E+00
  0.00000000E+00  0.00000000E+00  0.00000000E+00
  0.00000000E+00  0.00000000E+00  0.00000000E+00
  0.00000000E+00  0.00000000E+00  0.00000000E+00
  0.00000000E+00  0.00000000E+00  0.00000000E+00
  0.00000000E+00  0.00000000E+00  0.00000000E+00
  0.00000000E+00  0.00000000E+00  0.00000000E+00
  0.00000000E+00  0.00000000E+00  0.00000000E+00
  0.00000000E+00  0.00000000E+00  0.00000000E+00
  0.00000000E+00  0.00000000E+00  0.00000000E+00
  0.00000000E+00  0.00000000E+00  0.00000000E+00
  0.00000000E+00  0.00000000E+00  0.00000000E+00
  0.00000000E+00  0.00000000E+00  0.00000000E+00
  0.00000000E+00  0.00000000E+00  0.00000000E+00
  0.00000000E+00  0.00000000E+00  0.00000000E+00
  0.00000000E+00  0.00000000E+00  0.00000000E+00
  0.00000000E+00  0.00000000E+00  0.00000000E+00
  0.00000000E+00  0.00000000E+00  0.00000000E+00
  0.00000000E+00  0.00000000E+00  0.00000000E+00
  0.00000000E+00  0.00000000E+00  0.00000000E+00
  0.00000000E+00  0.00000000E+00  0.00000000E+00
  0.00000000E+00  0.00000000E+00  0.00000000E+00
  0.00000000E+00  0.00000000E+00  0.00000000E+00
  0.00000000E+00  0.00000000E+00  0.00000000E+00
  0.00000000E+00  0.00000000E+00  0.00000000E+00
  0.00000000E+00  0.00000000E+00  0.00000000E+00
  0.00000000E+00  0.00000000E+00  0.00000000E+00
  0.00000000E+00  0.00000000E+00  0.00000000E+00
  0.00000000E+00  0.00000000E+00  0.00000000E+00
  0.00000000E+00  0.00000000E+00  0.00000000E+00
  0.00000000E+00  0.00000000E+00  0.00000000E+00
  0.00000000E+00  0.00000000E+00  0.00000000E+00
  0.00000000E+00  0.00000000E+00  0.00000000E+00
  0.00000000E+00  0.00000000E+00  0.00000000E+00
  0.00000000E+00  0.00000000E+00  0.00000000E+00
  0.00000000E+00  0.00000000E+00  0.00000000E+00
  0.00000000E+00  0.00000000E+00  0.00000000E+00
  0.00000000E+00  0.00000000E+00  0.00000000E+00
  0.00000000E+00  0.00000000E+00  0.00000000E+00
  0.00000000E+00  0.00000000E+00  0.00000000E+00
  0.00000000E+00  0.00000000E+00  0.00000000E+00
  0.00000000E+00  0.00000000E+00  0.00000000E+00
  0.00000000E+00  0.00000000E+00  0.00000000E+00
  0.00000000E+00  0.00000000E+00  0.00000000E+00
  0.00000000E+00  0.00000000E+00  0.00000000E+00
  0.00000000E+00  0.00000000E+00  0.00000000E+00
  0.00000000E+00  0.00000000E+00  0.00000000E+00
  0.00000000E+00  0.00000000E+00  0.00000000E+00
  0.00000000E+00  0.00000000E+00  0.00000000E+00
  0.00000000E+00  0.00000000E+00  0.00000000E+00
  0.00000000E+00  0.00000000E+00  0.00000000E+00
  0.00000000E+00  0.00000000E+00  0.00000000E+00
  0.00000000E+00  0.00000000E+00  0.00000000E+00
