Pt  C  O  C  O  H                       
    1.000000000000000     
    11.2213408561008308    0.0000000000000000    0.0000000000000000
     1.4026676070126025   10.7740943252779040    0.0000000000000000
     0.0000000000000000    0.0000000000000000   27.7475611781839042
   Pt   C    O    C    O    H 
    56     1     1     1     2     1
Selective dynamics
Direct
  0.0169491525423737  0.8644067796610173  0.3976208246282127   F   F   F
  0.1694915254237301  0.6440677966101660  0.4162352201503552   F   F   F
  0.0720338983050866  0.4237288135593218  0.4348496156724977   F   F   F
  0.2245762711864430  0.2033898305084776  0.4534640111946402   F   F   F
  0.1275806153199862  0.9887930307384822  0.4661196335743751   T   T   T
  0.0279830889646573  0.7714431154328282  0.4919947297427176   T   T   T
  0.1805214663487879  0.5498382955977209  0.5110578708223322   T   T   T
  0.0840021192101838  0.3305040613828128  0.5276164831788028   T   T   T
  0.2368886845302955  0.1024186340822357  0.5447482868812851   T   T   T
  0.1389094667081767  0.8805162957875904  0.5687950376377543   T   T   T
  0.0400721831035650  0.6666710183037777  0.5850193074987191   T   T   T
  0.1935856678341108  0.4572687259087145  0.6075405455132958   T   T   T
  0.0937533898539174  0.2400099270654135  0.6184273637639824   T   T   T
  0.9913727084845316  0.0266284923059239  0.6309601614444503   T   T   T
  0.2669491525423737  0.8644067796610173  0.3976208246282127   F   F   F
  0.4194915254237301  0.6440677966101660  0.4162352201503552   F   F   F
  0.3220338983050866  0.4237288135593218  0.4348496156724977   F   F   F
  0.4745762711864430  0.2033898305084776  0.4534640111946402   F   F   F
  0.3753470146345653  0.9896238515742609  0.4650828889804959   T   T   T
  0.2787657609384481  0.7714700313517060  0.4921740275903478   T   T   T
  0.4319674167045979  0.5488891992120547  0.5100490658573570   T   T   T
  0.3334134213656060  0.3320787230107544  0.5279311025130736   T   T   T
  0.4883187945697575  0.1041097241756108  0.5410182999941315   T   T   T
  0.3908004642994642  0.8820411490610660  0.5683776286096218   T   T   T
  0.2925369058264439  0.6676427836620489  0.5851325460990264   T   T   T
  0.4443000832707250  0.4571523755011929  0.6065976583075331   T   T   T
  0.3422881627169756  0.2371686538108376  0.6175432414535929   T   T   T
  0.2461914844157478  0.0208483088066133  0.6356748486030019   T   T   T
  0.5169491525423737  0.8644067796610173  0.3976208246282127   F   F   F
  0.6694915254237301  0.6440677966101660  0.4162352201503552   F   F   F
  0.5720338983050866  0.4237288135593218  0.4348496156724977   F   F   F
  0.7245762711864430  0.2033898305084776  0.4534640111946402   F   F   F
  0.6260309036680647  0.9879092502624847  0.4648458856794137   T   T   T
  0.5290881434512819  0.7701385754990858  0.4919484087324654   T   T   T
  0.6810881497621080  0.5464502057601375  0.5107272912838839   T   T   T
  0.5836675481849893  0.3285499356608151  0.5288886496650915   T   T   T
  0.7365352778787702  0.1022768370379148  0.5407922929975166   T   T   T
  0.6412343205271055  0.8796956574160161  0.5689805943196503   T   T   T
  0.5419890862188218  0.6687573209925088  0.5850193313648324   T   T   T
  0.6945463526646921  0.4571613753132737  0.6094857302323606   T   T   T
  0.5949519098564826  0.2425735042931587  0.6262532150161461   T   T   T
  0.5024838728967738  0.0279727224391238  0.6309841341680207   T   T   T
  0.7669491525423737  0.8644067796610173  0.3976208246282127   F   F   F
  0.9194915254237301  0.6440677966101660  0.4162352201503552   F   F   F
  0.8220338983050866  0.4237288135593218  0.4348496156724977   F   F   F
  0.9745762711864430  0.2033898305084776  0.4534640111946402   F   F   F
  0.8768065943223909  0.9882099324968384  0.4642327593560874   T   T   T
  0.7779036350178283  0.7703090797463703  0.4925420639504274   T   T   T
  0.9301507113686701  0.5492210394282043  0.5091343286825043   T   T   T
  0.8319199803614306  0.3293283940474466  0.5282725028025168   T   T   T
  0.9853016209245984  0.1036376125890963  0.5405994212350307   T   T   T
  0.8889129356715970  0.8796893631840393  0.5686557442820863   T   T   T
  0.7909245157962492  0.6656217336796841  0.5865574482926622   T   T   T
  0.9401602169568146  0.4550879637360327  0.6027595812479216   T   T   T
  0.8488958085402295  0.2424419923209347  0.6209209266290828   T   T   T
  0.7469857031535803  0.0304686483785429  0.6311476465693270   T   T   T
  0.5705803714452030  0.4126205596387223  0.6619120312890159   T   T   T
  0.5639727043644555  0.4357090273844426  0.7040743283296956   T   T   T
  0.2532938947159222  0.9610629506221676  0.6983762085417969   T   T   T
  0.2583489870284330  0.9224729258191435  0.7374173935328158   T   T   T
  0.1844558986886277  0.4845090831906361  0.6780152955396808   T   T   T
  0.2653946128665284  0.4975730599040283  0.6884124391196443   T   T   T
 
  0.00000000E+00  0.00000000E+00  0.00000000E+00
  0.00000000E+00  0.00000000E+00  0.00000000E+00
  0.00000000E+00  0.00000000E+00  0.00000000E+00
  0.00000000E+00  0.00000000E+00  0.00000000E+00
  0.00000000E+00  0.00000000E+00  0.00000000E+00
  0.00000000E+00  0.00000000E+00  0.00000000E+00
  0.00000000E+00  0.00000000E+00  0.00000000E+00
  0.00000000E+00  0.00000000E+00  0.00000000E+00
  0.00000000E+00  0.00000000E+00  0.00000000E+00
  0.00000000E+00  0.00000000E+00  0.00000000E+00
  0.00000000E+00  0.00000000E+00  0.00000000E+00
  0.00000000E+00  0.00000000E+00  0.00000000E+00
  0.00000000E+00  0.00000000E+00  0.00000000E+00
  0.00000000E+00  0.00000000E+00  0.00000000E+00
  0.00000000E+00  0.00000000E+00  0.00000000E+00
  0.00000000E+00  0.00000000E+00  0.00000000E+00
  0.00000000E+00  0.00000000E+00  0.00000000E+00
  0.00000000E+00  0.00000000E+00  0.00000000E+00
  0.00000000E+00  0.00000000E+00  0.00000000E+00
  0.00000000E+00  0.00000000E+00  0.00000000E+00
  0.00000000E+00  0.00000000E+00  0.00000000E+00
  0.00000000E+00  0.00000000E+00  0.00000000E+00
  0.00000000E+00  0.00000000E+00  0.00000000E+00
  0.00000000E+00  0.00000000E+00  0.00000000E+00
  0.00000000E+00  0.00000000E+00  0.00000000E+00
  0.00000000E+00  0.00000000E+00  0.00000000E+00
  0.00000000E+00  0.00000000E+00  0.00000000E+00
  0.00000000E+00  0.00000000E+00  0.00000000E+00
  0.00000000E+00  0.00000000E+00  0.00000000E+00
  0.00000000E+00  0.00000000E+00  0.00000000E+00
  0.00000000E+00  0.00000000E+00  0.00000000E+00
  0.00000000E+00  0.00000000E+00  0.00000000E+00
  0.00000000E+00  0.00000000E+00  0.00000000E+00
  0.00000000E+00  0.00000000E+00  0.00000000E+00
  0.00000000E+00  0.00000000E+00  0.00000000E+00
  0.00000000E+00  0.00000000E+00  0.00000000E+00
  0.00000000E+00  0.00000000E+00  0.00000000E+00
  0.00000000E+00  0.00000000E+00  0.00000000E+00
  0.00000000E+00  0.00000000E+00  0.00000000E+00
  0.00000000E+00  0.00000000E+00  0.00000000E+00
  0.00000000E+00  0.00000000E+00  0.00000000E+00
  0.00000000E+00  0.00000000E+00  0.00000000E+00
  0.00000000E+00  0.00000000E+00  0.00000000E+00
  0.00000000E+00  0.00000000E+00  0.00000000E+00
  0.00000000E+00  0.00000000E+00  0.00000000E+00
  0.00000000E+00  0.00000000E+00  0.00000000E+00
  0.00000000E+00  0.00000000E+00  0.00000000E+00
  0.00000000E+00  0.00000000E+00  0.00000000E+00
  0.00000000E+00  0.00000000E+00  0.00000000E+00
  0.00000000E+00  0.00000000E+00  0.00000000E+00
  0.00000000E+00  0.00000000E+00  0.00000000E+00
  0.00000000E+00  0.00000000E+00  0.00000000E+00
  0.00000000E+00  0.00000000E+00  0.00000000E+00
  0.00000000E+00  0.00000000E+00  0.00000000E+00
  0.00000000E+00  0.00000000E+00  0.00000000E+00
  0.00000000E+00  0.00000000E+00  0.00000000E+00
  0.00000000E+00  0.00000000E+00  0.00000000E+00
  0.00000000E+00  0.00000000E+00  0.00000000E+00
  0.00000000E+00  0.00000000E+00  0.00000000E+00
  0.00000000E+00  0.00000000E+00  0.00000000E+00
  0.00000000E+00  0.00000000E+00  0.00000000E+00
  0.00000000E+00  0.00000000E+00  0.00000000E+00
