Pt  C  O  C  O  H                       
    1.000000000000000     
    11.2213408561008308    0.0000000000000000    0.0000000000000000
     1.4026676070126025   10.7740943252779040    0.0000000000000000
     0.0000000000000000    0.0000000000000000   27.7475611781839042
   Pt   C    O    C    O    H 
    56     1     1     1     2     1
Selective dynamics
Direct
  0.0169491525423737  0.8644067796610173  0.3976208246282127   F   F   F
  0.1694915254237301  0.6440677966101660  0.4162352201503552   F   F   F
  0.0720338983050866  0.4237288135593218  0.4348496156724977   F   F   F
  0.2245762711864430  0.2033898305084776  0.4534640111946402   F   F   F
  0.1254062387908786  0.9890545275906365  0.4659585676192232   T   T   T
  0.0277858592162024  0.7730218854366500  0.4929124817479007   T   T   T
  0.1794209788429770  0.5514699632397972  0.5087077405235999   T   T   T
  0.0830193484354850  0.3284638612770894  0.5263729314944177   T   T   T
  0.2371606099393519  0.1028080624387547  0.5409411395412836   T   T   T
  0.1387237228160359  0.8807920074756577  0.5694519683526597   T   T   T
  0.0402761605153512  0.6662042187624237  0.5866311906079353   T   T   T
  0.1896540604328642  0.4543538862707507  0.6010338307940882   T   T   T
  0.0948538282128299  0.2401810334205577  0.6185049709514694   T   T   T
  0.9968818547132675  0.0230500792621938  0.6371010921709190   T   T   T
  0.2669491525423737  0.8644067796610173  0.3976208246282127   F   F   F
  0.4194915254237301  0.6440677966101660  0.4162352201503552   F   F   F
  0.3220338983050866  0.4237288135593218  0.4348496156724977   F   F   F
  0.4745762711864430  0.2033898305084776  0.4534640111946402   F   F   F
  0.3772600617527430  0.9894546979082504  0.4658039320053350   T   T   T
  0.2784019978046801  0.7725463751625841  0.4918825802223012   T   T   T
  0.4307281326693910  0.5493430326121740  0.5107948564039112   T   T   T
  0.3340280570294657  0.3308033848422427  0.5271651514565509   T   T   T
  0.4874492049177451  0.1022025730934473  0.5452787278668259   T   T   T
  0.3899149116662126  0.8805099966986489  0.5691281316437593   T   T   T
  0.2897352829656902  0.6670107677684453  0.5843908876658973   T   T   T
  0.4431936458500431  0.4556733166924581  0.6068566848996955   T   T   T
  0.3428068397663581  0.2396383473214818  0.6175837151931267   T   T   T
  0.2466430971861254  0.0256511836862271  0.6316669279527187   T   T   T
  0.5169491525423737  0.8644067796610173  0.3976208246282127   F   F   F
  0.6694915254237301  0.6440677966101660  0.4162352201503552   F   F   F
  0.5720338983050866  0.4237288135593218  0.4348496156724977   F   F   F
  0.7245762711864430  0.2033898305084776  0.4534640111946402   F   F   F
  0.6257471057050833  0.9893281655393541  0.4655379565753097   T   T   T
  0.5281948038391180  0.7725744005157660  0.4923481845750203   T   T   T
  0.6824136949664474  0.5504159699174745  0.5087805831057826   T   T   T
  0.5830614115173699  0.3307739638254790  0.5271466043338934   T   T   T
  0.7372644470314307  0.1018023777830697  0.5410808850652937   T   T   T
  0.6403191713904937  0.8808479742146289  0.5691943020952080   T   T   T
  0.5432008556513516  0.6662856044669181  0.5843481390853118   T   T   T
  0.6966359389517405  0.4543853736850413  0.6015190815579321   T   T   T
  0.5968470871865249  0.2396748163239110  0.6178060462929588   T   T   T
  0.4968317746755047  0.0230334581198608  0.6366845926899093   T   T   T
  0.7669491525423737  0.8644067796610173  0.3976208246282127   F   F   F
  0.9194915254237301  0.6440677966101660  0.4162352201503552   F   F   F
  0.8220338983050866  0.4237288135593218  0.4348496156724977   F   F   F
  0.9745762711864430  0.2033898305084776  0.4534640111946402   F   F   F
  0.8771662536986768  0.9887918858872384  0.4659427926464169   T   T   T
  0.7784883001801473  0.7722667935444369  0.4924595874955470   T   T   T
  0.9309092539802976  0.5501976362672989  0.5094844583739541   T   T   T
  0.8343293043195563  0.3274536762392068  0.5266019228637173   T   T   T
  0.9869960625025975  0.1011829229265221  0.5455422450011843   T   T   T
  0.8899716712617487  0.8796922648591725  0.5701669771747987   T   T   T
  0.7922385751939909  0.6668282874695718  0.5866814995680294   T   T   T
  0.9429015463312822  0.4533084541375369  0.6033278720713142   T   T   T
  0.8446846391160673  0.2402745122805993  0.6188553924955803   T   T   T
  0.7464494228290309  0.0261546017670072  0.6320680365381499   T   T   T
  0.5036134355655032  0.9664253028495008  0.6997936611648758   T   T   T
  0.5080753331294692  0.9296176359073344  0.7391089945429145   T   T   T
  0.0037695585570927  0.9680647835022825  0.7004342877744424   T   T   T
  0.0080115249107504  0.9324729522966649  0.7399130447852716   T   T   T
  0.4353626040233156  0.4836791539569761  0.6773426672942087   T   T   T
  0.5176071961693969  0.4933378204781765  0.6873385440248689   T   T   T
 
  0.00000000E+00  0.00000000E+00  0.00000000E+00
  0.00000000E+00  0.00000000E+00  0.00000000E+00
  0.00000000E+00  0.00000000E+00  0.00000000E+00
  0.00000000E+00  0.00000000E+00  0.00000000E+00
  0.00000000E+00  0.00000000E+00  0.00000000E+00
  0.00000000E+00  0.00000000E+00  0.00000000E+00
  0.00000000E+00  0.00000000E+00  0.00000000E+00
  0.00000000E+00  0.00000000E+00  0.00000000E+00
  0.00000000E+00  0.00000000E+00  0.00000000E+00
  0.00000000E+00  0.00000000E+00  0.00000000E+00
  0.00000000E+00  0.00000000E+00  0.00000000E+00
  0.00000000E+00  0.00000000E+00  0.00000000E+00
  0.00000000E+00  0.00000000E+00  0.00000000E+00
  0.00000000E+00  0.00000000E+00  0.00000000E+00
  0.00000000E+00  0.00000000E+00  0.00000000E+00
  0.00000000E+00  0.00000000E+00  0.00000000E+00
  0.00000000E+00  0.00000000E+00  0.00000000E+00
  0.00000000E+00  0.00000000E+00  0.00000000E+00
  0.00000000E+00  0.00000000E+00  0.00000000E+00
  0.00000000E+00  0.00000000E+00  0.00000000E+00
  0.00000000E+00  0.00000000E+00  0.00000000E+00
  0.00000000E+00  0.00000000E+00  0.00000000E+00
  0.00000000E+00  0.00000000E+00  0.00000000E+00
  0.00000000E+00  0.00000000E+00  0.00000000E+00
  0.00000000E+00  0.00000000E+00  0.00000000E+00
  0.00000000E+00  0.00000000E+00  0.00000000E+00
  0.00000000E+00  0.00000000E+00  0.00000000E+00
  0.00000000E+00  0.00000000E+00  0.00000000E+00
  0.00000000E+00  0.00000000E+00  0.00000000E+00
  0.00000000E+00  0.00000000E+00  0.00000000E+00
  0.00000000E+00  0.00000000E+00  0.00000000E+00
  0.00000000E+00  0.00000000E+00  0.00000000E+00
  0.00000000E+00  0.00000000E+00  0.00000000E+00
  0.00000000E+00  0.00000000E+00  0.00000000E+00
  0.00000000E+00  0.00000000E+00  0.00000000E+00
  0.00000000E+00  0.00000000E+00  0.00000000E+00
  0.00000000E+00  0.00000000E+00  0.00000000E+00
  0.00000000E+00  0.00000000E+00  0.00000000E+00
  0.00000000E+00  0.00000000E+00  0.00000000E+00
  0.00000000E+00  0.00000000E+00  0.00000000E+00
  0.00000000E+00  0.00000000E+00  0.00000000E+00
  0.00000000E+00  0.00000000E+00  0.00000000E+00
  0.00000000E+00  0.00000000E+00  0.00000000E+00
  0.00000000E+00  0.00000000E+00  0.00000000E+00
  0.00000000E+00  0.00000000E+00  0.00000000E+00
  0.00000000E+00  0.00000000E+00  0.00000000E+00
  0.00000000E+00  0.00000000E+00  0.00000000E+00
  0.00000000E+00  0.00000000E+00  0.00000000E+00
  0.00000000E+00  0.00000000E+00  0.00000000E+00
  0.00000000E+00  0.00000000E+00  0.00000000E+00
  0.00000000E+00  0.00000000E+00  0.00000000E+00
  0.00000000E+00  0.00000000E+00  0.00000000E+00
  0.00000000E+00  0.00000000E+00  0.00000000E+00
  0.00000000E+00  0.00000000E+00  0.00000000E+00
  0.00000000E+00  0.00000000E+00  0.00000000E+00
  0.00000000E+00  0.00000000E+00  0.00000000E+00
  0.00000000E+00  0.00000000E+00  0.00000000E+00
  0.00000000E+00  0.00000000E+00  0.00000000E+00
  0.00000000E+00  0.00000000E+00  0.00000000E+00
  0.00000000E+00  0.00000000E+00  0.00000000E+00
  0.00000000E+00  0.00000000E+00  0.00000000E+00
  0.00000000E+00  0.00000000E+00  0.00000000E+00
