Pt  C  O  C  O  H                       
    1.000000000000000     
    11.2213408561008308    0.0000000000000000    0.0000000000000000
     1.4026676070126025   10.7740943252779040    0.0000000000000000
     0.0000000000000000    0.0000000000000000   27.7475611781839042
   Pt   C    O    C    O    H 
    56     1     1     1     2     1
Selective dynamics
Direct
  0.0169491525423737  0.8644067796610173  0.3976208246282127   F   F   F
  0.1694915254237301  0.6440677966101660  0.4162352201503552   F   F   F
  0.0720338983050866  0.4237288135593218  0.4348496156724977   F   F   F
  0.2245762711864430  0.2033898305084776  0.4534640111946402   F   F   F
  0.1254517214873569  0.9877370825043854  0.4661936688527467   T   T   T
  0.0272207104181677  0.7718298637209622  0.4930501654141964   T   T   T
  0.1813433813617459  0.5500073141874507  0.5091350818441984   T   T   T
  0.0834019814152471  0.3288550475302798  0.5261908082082102   T   T   T
  0.2377764363125242  0.1012460435390796  0.5409009652311121   T   T   T
  0.1414173053947833  0.8763533811270490  0.5686867669473294   T   T   T
  0.0415409605428242  0.6615626708286367  0.5861993683215214   T   T   T
  0.1941470219195184  0.4511572818653388  0.6021584846310879   T   T   T
  0.0968419167222046  0.2378426833025050  0.6176782380946380   T   T   T
  0.0030591847489356  0.0185645433110115  0.6364523008669927   T   T   T
  0.2669491525423737  0.8644067796610173  0.3976208246282127   F   F   F
  0.4194915254237301  0.6440677966101660  0.4162352201503552   F   F   F
  0.3220338983050866  0.4237288135593218  0.4348496156724977   F   F   F
  0.4745762711864430  0.2033898305084776  0.4534640111946402   F   F   F
  0.3776658307909831  0.9875122213720660  0.4661096181317080   T   T   T
  0.2785617620046427  0.7703611850758297  0.4923522962619641   T   T   T
  0.4311602713138030  0.5491592738308818  0.5095506957694256   T   T   T
  0.3344846363874004  0.3279443255413607  0.5263960769288279   T   T   T
  0.4875101150712745  0.0991223680569042  0.5450527484424690   T   T   T
  0.3904877913064753  0.8755223816355480  0.5691363684200652   T   T   T
  0.2929113973195775  0.6622840489708767  0.5867632535057750   T   T   T
  0.4449836137756839  0.4488567189589086  0.6029182335034297   T   T   T
  0.3448428029053991  0.2373536991963572  0.6180302261622158   T   T   T
  0.2484136786779928  0.0220660068873990  0.6312325690278128   T   T   T
  0.5169491525423737  0.8644067796610173  0.3976208246282127   F   F   F
  0.6694915254237301  0.6440677966101660  0.4162352201503552   F   F   F
  0.5720338983050866  0.4237288135593218  0.4348496156724977   F   F   F
  0.7245762711864430  0.2033898305084776  0.4534640111946402   F   F   F
  0.6267027514857265  0.9892697169919555  0.4665153382688620   T   T   T
  0.5291562189286498  0.7710050513854759  0.4929533895536303   T   T   T
  0.6810501785196460  0.5499704391691502  0.5092163712956936   T   T   T
  0.5842710430657970  0.3265771800065371  0.5260649769174782   T   T   T
  0.7376943683807484  0.0985213347330177  0.5448768858358803   T   T   T
  0.6402792694789460  0.8775350560032098  0.5695495174346287   T   T   T
  0.5424155157651865  0.6625735336108499  0.5864874914303227   T   T   T
  0.6935023724719180  0.4506341718640712  0.6018074295774559   T   T   T
  0.5958599335744381  0.2351785500672867  0.6174076809161455   T   T   T
  0.4942100412337599  0.0188651452246602  0.6359085667846587   T   T   T
  0.7669491525423737  0.8644067796610173  0.3976208246282127   F   F   F
  0.9194915254237301  0.6440677966101660  0.4162352201503552   F   F   F
  0.8220338983050866  0.4237288135593218  0.4348496156724977   F   F   F
  0.9745762711864430  0.2033898305084776  0.4534640111946402   F   F   F
  0.8758118823752878  0.9895631149411110  0.4666510225745202   T   T   T
  0.7785069041795598  0.7714462264680487  0.4925424483508301   T   T   T
  0.9308445141806804  0.5497674055502518  0.5092542438358751   T   T   T
  0.8336409652193258  0.3264573098626908  0.5261174560765954   T   T   T
  0.9878082793372662  0.0993247958517892  0.5451916870146108   T   T   T
  0.8906211926421104  0.8769338635179984  0.5700832984140524   T   T   T
  0.7922737263724553  0.6628624846649690  0.5862354022142142   T   T   T
  0.9427458781796966  0.4484116124858815  0.6026012869030446   T   T   T
  0.8452272816202832  0.2342126747507557  0.6173640165392313   T   T   T
  0.7496843902094414  0.0175734751442005  0.6357344036071315   T   T   T
  0.4945971961160489  0.9590068598353617  0.6990166933241863   T   T   T
  0.4916595574463617  0.9212116698780534  0.7378619567190910   T   T   T
  0.0263143858706651  0.9596302817580326  0.6986726184305676   T   T   T
  0.0399253497324667  0.9213760468378701  0.7376708147264194   T   T   T
  0.7414612286494640  0.9558113446059021  0.7020742261220783   T   T   T
  0.8211085793972599  0.9353747781392471  0.7164131883193470   T   T   T
 
  0.00000000E+00  0.00000000E+00  0.00000000E+00
  0.00000000E+00  0.00000000E+00  0.00000000E+00
  0.00000000E+00  0.00000000E+00  0.00000000E+00
  0.00000000E+00  0.00000000E+00  0.00000000E+00
  0.00000000E+00  0.00000000E+00  0.00000000E+00
  0.00000000E+00  0.00000000E+00  0.00000000E+00
  0.00000000E+00  0.00000000E+00  0.00000000E+00
  0.00000000E+00  0.00000000E+00  0.00000000E+00
  0.00000000E+00  0.00000000E+00  0.00000000E+00
  0.00000000E+00  0.00000000E+00  0.00000000E+00
  0.00000000E+00  0.00000000E+00  0.00000000E+00
  0.00000000E+00  0.00000000E+00  0.00000000E+00
  0.00000000E+00  0.00000000E+00  0.00000000E+00
  0.00000000E+00  0.00000000E+00  0.00000000E+00
  0.00000000E+00  0.00000000E+00  0.00000000E+00
  0.00000000E+00  0.00000000E+00  0.00000000E+00
  0.00000000E+00  0.00000000E+00  0.00000000E+00
  0.00000000E+00  0.00000000E+00  0.00000000E+00
  0.00000000E+00  0.00000000E+00  0.00000000E+00
  0.00000000E+00  0.00000000E+00  0.00000000E+00
  0.00000000E+00  0.00000000E+00  0.00000000E+00
  0.00000000E+00  0.00000000E+00  0.00000000E+00
  0.00000000E+00  0.00000000E+00  0.00000000E+00
  0.00000000E+00  0.00000000E+00  0.00000000E+00
  0.00000000E+00  0.00000000E+00  0.00000000E+00
  0.00000000E+00  0.00000000E+00  0.00000000E+00
  0.00000000E+00  0.00000000E+00  0.00000000E+00
  0.00000000E+00  0.00000000E+00  0.00000000E+00
  0.00000000E+00  0.00000000E+00  0.00000000E+00
  0.00000000E+00  0.00000000E+00  0.00000000E+00
  0.00000000E+00  0.00000000E+00  0.00000000E+00
  0.00000000E+00  0.00000000E+00  0.00000000E+00
  0.00000000E+00  0.00000000E+00  0.00000000E+00
  0.00000000E+00  0.00000000E+00  0.00000000E+00
  0.00000000E+00  0.00000000E+00  0.00000000E+00
  0.00000000E+00  0.00000000E+00  0.00000000E+00
  0.00000000E+00  0.00000000E+00  0.00000000E+00
  0.00000000E+00  0.00000000E+00  0.00000000E+00
  0.00000000E+00  0.00000000E+00  0.00000000E+00
  0.00000000E+00  0.00000000E+00  0.00000000E+00
  0.00000000E+00  0.00000000E+00  0.00000000E+00
  0.00000000E+00  0.00000000E+00  0.00000000E+00
  0.00000000E+00  0.00000000E+00  0.00000000E+00
  0.00000000E+00  0.00000000E+00  0.00000000E+00
  0.00000000E+00  0.00000000E+00  0.00000000E+00
  0.00000000E+00  0.00000000E+00  0.00000000E+00
  0.00000000E+00  0.00000000E+00  0.00000000E+00
  0.00000000E+00  0.00000000E+00  0.00000000E+00
  0.00000000E+00  0.00000000E+00  0.00000000E+00
  0.00000000E+00  0.00000000E+00  0.00000000E+00
  0.00000000E+00  0.00000000E+00  0.00000000E+00
  0.00000000E+00  0.00000000E+00  0.00000000E+00
  0.00000000E+00  0.00000000E+00  0.00000000E+00
  0.00000000E+00  0.00000000E+00  0.00000000E+00
  0.00000000E+00  0.00000000E+00  0.00000000E+00
  0.00000000E+00  0.00000000E+00  0.00000000E+00
  0.00000000E+00  0.00000000E+00  0.00000000E+00
  0.00000000E+00  0.00000000E+00  0.00000000E+00
  0.00000000E+00  0.00000000E+00  0.00000000E+00
  0.00000000E+00  0.00000000E+00  0.00000000E+00
  0.00000000E+00  0.00000000E+00  0.00000000E+00
  0.00000000E+00  0.00000000E+00  0.00000000E+00
