Pt  C  O  C  O  H                       
    1.000000000000000     
    11.2213408561008308    0.0000000000000000    0.0000000000000000
     1.4026676070126025   10.7740943252779040    0.0000000000000000
     0.0000000000000000    0.0000000000000000   27.7475611781839042
   Pt   C    O    C    O    H 
    56     1     1     1     2     1
Selective dynamics
Direct
  0.0169491525423737  0.8644067796610173  0.3976208246282127   F   F   F
  0.1694915254237301  0.6440677966101660  0.4162352201503552   F   F   F
  0.0720338983050866  0.4237288135593218  0.4348496156724977   F   F   F
  0.2245762711864430  0.2033898305084776  0.4534640111946402   F   F   F
  0.1275082696931976  0.9886307727888917  0.4663178279155090   T   T   T
  0.0283040978503917  0.7716512770649412  0.4922134120771786   T   T   T
  0.1811871234149904  0.5494558631433388  0.5088807210963119   T   T   T
  0.0850743448741241  0.3271224276412934  0.5293996790247768   T   T   T
  0.2365350538002783  0.1037411451735307  0.5452963573412286   T   T   T
  0.1397819257364759  0.8800558742275917  0.5685166305879253   T   T   T
  0.0435361355168092  0.6653056982098717  0.5856313520354425   T   T   T
  0.1943766859453607  0.4542732743848897  0.6022588891322918   T   T   T
  0.0964026340602124  0.2427694719249525  0.6238918966295959   T   T   T
  0.9895831353210836  0.0258030845903617  0.6305534826954619   T   T   T
  0.2669491525423737  0.8644067796610173  0.3976208246282127   F   F   F
  0.4194915254237301  0.6440677966101660  0.4162352201503552   F   F   F
  0.3220338983050866  0.4237288135593218  0.4348496156724977   F   F   F
  0.4745762711864430  0.2033898305084776  0.4534640111946402   F   F   F
  0.3749348714403564  0.9897426317806295  0.4649611921777565   T   T   T
  0.2797623608998982  0.7697228132593746  0.4924371028875085   T   T   T
  0.4329712383024777  0.5476649398826289  0.5115035694329250   T   T   T
  0.3350686076952455  0.3308177250865613  0.5272177470972143   T   T   T
  0.4880935621857010  0.1032265379380036  0.5412706290838804   T   T   T
  0.3912915342562560  0.8798970760647892  0.5681003385603156   T   T   T
  0.2931998196843490  0.6651523332211339  0.5861928822101726   T   T   T
  0.4442354819851922  0.4589876426540546  0.6100995224199270   T   T   T
  0.3446436649873467  0.2360883689915044  0.6177048364231192   T   T   T
  0.2478759001493889  0.0182309297117158  0.6346568397184188   T   T   T
  0.5169491525423737  0.8644067796610173  0.3976208246282127   F   F   F
  0.6694915254237301  0.6440677966101660  0.4162352201503552   F   F   F
  0.5720338983050866  0.4237288135593218  0.4348496156724977   F   F   F
  0.7245762711864430  0.2033898305084776  0.4534640111946402   F   F   F
  0.6259738061649285  0.9882789471761124  0.4648075669836339   T   T   T
  0.5292438992010017  0.7699026897531674  0.4922072135168106   T   T   T
  0.6818483961952368  0.5472462231024837  0.5094884242959661   T   T   T
  0.5838006273546495  0.3293905245190428  0.5291821333948451   T   T   T
  0.7356327025928636  0.1039140227713588  0.5408886905322712   T   T   T
  0.6416915236194967  0.8788838111412097  0.5686586541720193   T   T   T
  0.5432895406470828  0.6664882221868870  0.5858956618674762   T   T   T
  0.6982976170790781  0.4557336972432464  0.6033830367529248   T   T   T
  0.5957071958521013  0.2452692830406624  0.6285417875245772   T   T   T
  0.5034840865246167  0.0250254986341840  0.6309608243021425   T   T   T
  0.7669491525423737  0.8644067796610173  0.3976208246282127   F   F   F
  0.9194915254237301  0.6440677966101660  0.4162352201503552   F   F   F
  0.8220338983050866  0.4237288135593218  0.4348496156724977   F   F   F
  0.9745762711864430  0.2033898305084776  0.4534640111946402   F   F   F
  0.8769160711572711  0.9890663860752188  0.4639457848438051   T   T   T
  0.7784139166391767  0.7713208971517812  0.4925268902372206   T   T   T
  0.9318859155285313  0.5483706450838780  0.5088818251829550   T   T   T
  0.8335205388265877  0.3283419608715591  0.5274078421153376   T   T   T
  0.9855707382071625  0.1039538068628355  0.5413818125135083   T   T   T
  0.8896310453129307  0.8792357063411579  0.5685591045155347   T   T   T
  0.7936147390409652  0.6658021926656472  0.5857987850987451   T   T   T
  0.9437534121948452  0.4545543929885325  0.6022804347739258   T   T   T
  0.8447417734249684  0.2434422407438375  0.6207463669942346   T   T   T
  0.7454278117720321  0.0307938775851592  0.6309093355522384   T   T   T
  0.5135094127740948  0.3813493995138307  0.6707356677574788   T   T   T
  0.5113490640698364  0.4013938851795397  0.7126781961728886   T   T   T
  0.2545238370440001  0.9581527788086039  0.6974750492790432   T   T   T
  0.2589000010227567  0.9200214335538949  0.7365375307753562   T   T   T
  0.0879351523756631  0.2614188857315305  0.6948233173110574   T   T   T
  0.1604522987271888  0.2974681666010817  0.7039702710939925   T   T   T
 
  0.00000000E+00  0.00000000E+00  0.00000000E+00
  0.00000000E+00  0.00000000E+00  0.00000000E+00
  0.00000000E+00  0.00000000E+00  0.00000000E+00
  0.00000000E+00  0.00000000E+00  0.00000000E+00
  0.00000000E+00  0.00000000E+00  0.00000000E+00
  0.00000000E+00  0.00000000E+00  0.00000000E+00
  0.00000000E+00  0.00000000E+00  0.00000000E+00
  0.00000000E+00  0.00000000E+00  0.00000000E+00
  0.00000000E+00  0.00000000E+00  0.00000000E+00
  0.00000000E+00  0.00000000E+00  0.00000000E+00
  0.00000000E+00  0.00000000E+00  0.00000000E+00
  0.00000000E+00  0.00000000E+00  0.00000000E+00
  0.00000000E+00  0.00000000E+00  0.00000000E+00
  0.00000000E+00  0.00000000E+00  0.00000000E+00
  0.00000000E+00  0.00000000E+00  0.00000000E+00
  0.00000000E+00  0.00000000E+00  0.00000000E+00
  0.00000000E+00  0.00000000E+00  0.00000000E+00
  0.00000000E+00  0.00000000E+00  0.00000000E+00
  0.00000000E+00  0.00000000E+00  0.00000000E+00
  0.00000000E+00  0.00000000E+00  0.00000000E+00
  0.00000000E+00  0.00000000E+00  0.00000000E+00
  0.00000000E+00  0.00000000E+00  0.00000000E+00
  0.00000000E+00  0.00000000E+00  0.00000000E+00
  0.00000000E+00  0.00000000E+00  0.00000000E+00
  0.00000000E+00  0.00000000E+00  0.00000000E+00
  0.00000000E+00  0.00000000E+00  0.00000000E+00
  0.00000000E+00  0.00000000E+00  0.00000000E+00
  0.00000000E+00  0.00000000E+00  0.00000000E+00
  0.00000000E+00  0.00000000E+00  0.00000000E+00
  0.00000000E+00  0.00000000E+00  0.00000000E+00
  0.00000000E+00  0.00000000E+00  0.00000000E+00
  0.00000000E+00  0.00000000E+00  0.00000000E+00
  0.00000000E+00  0.00000000E+00  0.00000000E+00
  0.00000000E+00  0.00000000E+00  0.00000000E+00
  0.00000000E+00  0.00000000E+00  0.00000000E+00
  0.00000000E+00  0.00000000E+00  0.00000000E+00
  0.00000000E+00  0.00000000E+00  0.00000000E+00
  0.00000000E+00  0.00000000E+00  0.00000000E+00
  0.00000000E+00  0.00000000E+00  0.00000000E+00
  0.00000000E+00  0.00000000E+00  0.00000000E+00
  0.00000000E+00  0.00000000E+00  0.00000000E+00
  0.00000000E+00  0.00000000E+00  0.00000000E+00
  0.00000000E+00  0.00000000E+00  0.00000000E+00
  0.00000000E+00  0.00000000E+00  0.00000000E+00
  0.00000000E+00  0.00000000E+00  0.00000000E+00
  0.00000000E+00  0.00000000E+00  0.00000000E+00
  0.00000000E+00  0.00000000E+00  0.00000000E+00
  0.00000000E+00  0.00000000E+00  0.00000000E+00
  0.00000000E+00  0.00000000E+00  0.00000000E+00
  0.00000000E+00  0.00000000E+00  0.00000000E+00
  0.00000000E+00  0.00000000E+00  0.00000000E+00
  0.00000000E+00  0.00000000E+00  0.00000000E+00
  0.00000000E+00  0.00000000E+00  0.00000000E+00
  0.00000000E+00  0.00000000E+00  0.00000000E+00
  0.00000000E+00  0.00000000E+00  0.00000000E+00
  0.00000000E+00  0.00000000E+00  0.00000000E+00
  0.00000000E+00  0.00000000E+00  0.00000000E+00
  0.00000000E+00  0.00000000E+00  0.00000000E+00
  0.00000000E+00  0.00000000E+00  0.00000000E+00
  0.00000000E+00  0.00000000E+00  0.00000000E+00
  0.00000000E+00  0.00000000E+00  0.00000000E+00
  0.00000000E+00  0.00000000E+00  0.00000000E+00
