Pt  C  O  C  O  H                       
    1.000000000000000     
    11.2213408561008308    0.0000000000000000    0.0000000000000000
     1.4026676070126025   10.7740943252779040    0.0000000000000000
     0.0000000000000000    0.0000000000000000   27.7475611781839042
   Pt   C    O    C    O    H 
    56     1     1     1     2     1
Selective dynamics
Direct
  0.0169491525423737  0.8644067796610173  0.3976208246282127   F   F   F
  0.1694915254237301  0.6440677966101660  0.4162352201503552   F   F   F
  0.0720338983050866  0.4237288135593218  0.4348496156724977   F   F   F
  0.2245762711864430  0.2033898305084776  0.4534640111946402   F   F   F
  0.1260491493085566  0.9893539358530821  0.4643097338169596   T   T   T
  0.0295283548112460  0.7709389227606995  0.4938920306363849   T   T   T
  0.1811616866962964  0.5503727946592257  0.5102907958453355   T   T   T
  0.0864287698134506  0.3296279232167817  0.5289425192508125   T   T   T
  0.2385380389418114  0.1080569458186714  0.5407860961186672   T   T   T
  0.1407454483975349  0.8896128078890451  0.5677632507316757   T   T   T
  0.0432396195613395  0.6780596563536636  0.5905791085107079   T   T   T
  0.1937621188747959  0.4600668803821707  0.6040161664746398   T   T   T
  0.1001445770241927  0.2518823758126625  0.6266935736992664   T   T   T
  0.9992426927643577  0.0337202656394030  0.6312596724367375   T   T   T
  0.2669491525423737  0.8644067796610173  0.3976208246282127   F   F   F
  0.4194915254237301  0.6440677966101660  0.4162352201503552   F   F   F
  0.3220338983050866  0.4237288135593218  0.4348496156724977   F   F   F
  0.4745762711864430  0.2033898305084776  0.4534640111946402   F   F   F
  0.3770301911508305  0.9891271854487556  0.4642522758570492   T   T   T
  0.2796203909113457  0.7725596525689659  0.4917295873321021   T   T   T
  0.4336726958470390  0.5508999190635647  0.5103076494963208   T   T   T
  0.3365756015511466  0.3344329266697003  0.5291605963172183   T   T   T
  0.4884239057856969  0.1070479874320123  0.5406316766098326   T   T   T
  0.3923020699246325  0.8864794026514800  0.5678225519412139   T   T   T
  0.2912829267963308  0.6726093631380079  0.5830681131320344   T   T   T
  0.4435935848199494  0.4644983474125759  0.6110024083292779   T   T   T
  0.3474263287993384  0.2527926858472624  0.6224934184938613   T   T   T
  0.2543513261991239  0.0344987927137523  0.6299439497642999   T   T   T
  0.5169491525423737  0.8644067796610173  0.3976208246282127   F   F   F
  0.6694915254237301  0.6440677966101660  0.4162352201503552   F   F   F
  0.5720338983050866  0.4237288135593218  0.4348496156724977   F   F   F
  0.7245762711864430  0.2033898305084776  0.4534640111946402   F   F   F
  0.6266272219740406  0.9891826281470347  0.4644134369372132   T   T   T
  0.5303002755523970  0.7708429471376128  0.4938124563179776   T   T   T
  0.6824489052019928  0.5509031953355276  0.5101628296346362   T   T   T
  0.5837913574448249  0.3328570415174164  0.5290556858719551   T   T   T
  0.7373258740792915  0.1077471572714084  0.5409814725981122   T   T   T
  0.6410736106525492  0.8844210473909527  0.5688008363585655   T   T   T
  0.5432171375307553  0.6749414534345781  0.5920174407974366   T   T   T
  0.7012595185834687  0.4576988497056942  0.6040465053206350   T   T   T
  0.5968769480958848  0.2513340091922805  0.6222530271765574   T   T   T
  0.4979072435433683  0.0378582856694799  0.6308305479004641   T   T   T
  0.7669491525423737  0.8644067796610173  0.3976208246282127   F   F   F
  0.9194915254237301  0.6440677966101660  0.4162352201503552   F   F   F
  0.8220338983050866  0.4237288135593218  0.4348496156724977   F   F   F
  0.9745762711864430  0.2033898305084776  0.4534640111946402   F   F   F
  0.8769012273958993  0.9892230333612640  0.4642068426538456   T   T   T
  0.7796147641688401  0.7733110281770500  0.4923598313248747   T   T   T
  0.9329182267966439  0.5509230205811390  0.5100698620729479   T   T   T
  0.8347756486815713  0.3308333483322827  0.5285984388182177   T   T   T
  0.9875654750690975  0.1084323192841546  0.5410631625817701   T   T   T
  0.8900992236362323  0.8892554337633237  0.5683390815706328   T   T   T
  0.7926880762700287  0.6724146356895496  0.5851777464637494   T   T   T
  0.9452424380035097  0.4613532612258683  0.6019622947989987   T   T   T
  0.8452691924546057  0.2505247224570380  0.6269317344856841   T   T   T
  0.7430057499558042  0.0342553514859480  0.6303436375860880   T   T   T
  0.4963240578591034  0.5976135014493825  0.6536526934568185   T   T   T
  0.4946266349537699  0.6207655219519128  0.6953330850327788   T   T   T
  0.9805968857754213  0.1960210786910662  0.6772077517934689   T   T   T
  0.9802101627388865  0.2021670527602122  0.7202163340392280   T   T   T
  0.0336641439280653  0.7191575590612382  0.6606203261226465   T   T   T
  0.1168704368965078  0.7102956326410179  0.6723114663186538   T   T   T
 
  0.00000000E+00  0.00000000E+00  0.00000000E+00
  0.00000000E+00  0.00000000E+00  0.00000000E+00
  0.00000000E+00  0.00000000E+00  0.00000000E+00
  0.00000000E+00  0.00000000E+00  0.00000000E+00
  0.00000000E+00  0.00000000E+00  0.00000000E+00
  0.00000000E+00  0.00000000E+00  0.00000000E+00
  0.00000000E+00  0.00000000E+00  0.00000000E+00
  0.00000000E+00  0.00000000E+00  0.00000000E+00
  0.00000000E+00  0.00000000E+00  0.00000000E+00
  0.00000000E+00  0.00000000E+00  0.00000000E+00
  0.00000000E+00  0.00000000E+00  0.00000000E+00
  0.00000000E+00  0.00000000E+00  0.00000000E+00
  0.00000000E+00  0.00000000E+00  0.00000000E+00
  0.00000000E+00  0.00000000E+00  0.00000000E+00
  0.00000000E+00  0.00000000E+00  0.00000000E+00
  0.00000000E+00  0.00000000E+00  0.00000000E+00
  0.00000000E+00  0.00000000E+00  0.00000000E+00
  0.00000000E+00  0.00000000E+00  0.00000000E+00
  0.00000000E+00  0.00000000E+00  0.00000000E+00
  0.00000000E+00  0.00000000E+00  0.00000000E+00
  0.00000000E+00  0.00000000E+00  0.00000000E+00
  0.00000000E+00  0.00000000E+00  0.00000000E+00
  0.00000000E+00  0.00000000E+00  0.00000000E+00
  0.00000000E+00  0.00000000E+00  0.00000000E+00
  0.00000000E+00  0.00000000E+00  0.00000000E+00
  0.00000000E+00  0.00000000E+00  0.00000000E+00
  0.00000000E+00  0.00000000E+00  0.00000000E+00
  0.00000000E+00  0.00000000E+00  0.00000000E+00
  0.00000000E+00  0.00000000E+00  0.00000000E+00
  0.00000000E+00  0.00000000E+00  0.00000000E+00
  0.00000000E+00  0.00000000E+00  0.00000000E+00
  0.00000000E+00  0.00000000E+00  0.00000000E+00
  0.00000000E+00  0.00000000E+00  0.00000000E+00
  0.00000000E+00  0.00000000E+00  0.00000000E+00
  0.00000000E+00  0.00000000E+00  0.00000000E+00
  0.00000000E+00  0.00000000E+00  0.00000000E+00
  0.00000000E+00  0.00000000E+00  0.00000000E+00
  0.00000000E+00  0.00000000E+00  0.00000000E+00
  0.00000000E+00  0.00000000E+00  0.00000000E+00
  0.00000000E+00  0.00000000E+00  0.00000000E+00
  0.00000000E+00  0.00000000E+00  0.00000000E+00
  0.00000000E+00  0.00000000E+00  0.00000000E+00
  0.00000000E+00  0.00000000E+00  0.00000000E+00
  0.00000000E+00  0.00000000E+00  0.00000000E+00
  0.00000000E+00  0.00000000E+00  0.00000000E+00
  0.00000000E+00  0.00000000E+00  0.00000000E+00
  0.00000000E+00  0.00000000E+00  0.00000000E+00
  0.00000000E+00  0.00000000E+00  0.00000000E+00
  0.00000000E+00  0.00000000E+00  0.00000000E+00
  0.00000000E+00  0.00000000E+00  0.00000000E+00
  0.00000000E+00  0.00000000E+00  0.00000000E+00
  0.00000000E+00  0.00000000E+00  0.00000000E+00
  0.00000000E+00  0.00000000E+00  0.00000000E+00
  0.00000000E+00  0.00000000E+00  0.00000000E+00
  0.00000000E+00  0.00000000E+00  0.00000000E+00
  0.00000000E+00  0.00000000E+00  0.00000000E+00
  0.00000000E+00  0.00000000E+00  0.00000000E+00
  0.00000000E+00  0.00000000E+00  0.00000000E+00
  0.00000000E+00  0.00000000E+00  0.00000000E+00
  0.00000000E+00  0.00000000E+00  0.00000000E+00
  0.00000000E+00  0.00000000E+00  0.00000000E+00
  0.00000000E+00  0.00000000E+00  0.00000000E+00
