Pt  C  O  C  O  H                       
    1.000000000000000     
    11.2213408561008308    0.0000000000000000    0.0000000000000000
     1.4026676070126025   10.7740943252779040    0.0000000000000000
     0.0000000000000000    0.0000000000000000   27.7475611781839042
   Pt   C    O    C    O    H 
    56     1     1     1     2     1
Selective dynamics
Direct
  0.0169491525423737  0.8644067796610173  0.3976208246282127   F   F   F
  0.1694915254237301  0.6440677966101660  0.4162352201503552   F   F   F
  0.0720338983050866  0.4237288135593218  0.4348496156724977   F   F   F
  0.2245762711864430  0.2033898305084776  0.4534640111946402   F   F   F
  0.1263751012391641  0.9889556414802413  0.4638881506376121   T   T   T
  0.0280045759112551  0.7708139067921945  0.4923061007077513   T   T   T
  0.1807690220474222  0.5470878033417165  0.5089835998878184   T   T   T
  0.0837746664967079  0.3262010382215776  0.5337778113425610   T   T   T
  0.2376756842107160  0.1067059491536745  0.5407054483810879   T   T   T
  0.1391871635919104  0.8852482714263086  0.5678515225120013   T   T   T
  0.0407566868123430  0.6711221931238114  0.5853664565716239   T   T   T
  0.1897264782458994  0.4615442391367287  0.6031271043216364   T   T   T
  0.0978971491668494  0.2530262837390032  0.6296922904663911   T   T   T
  0.9941860858450988  0.0371352085626736  0.6295576817265484   T   T   T
  0.2669491525423737  0.8644067796610173  0.3976208246282127   F   F   F
  0.4194915254237301  0.6440677966101660  0.4162352201503552   F   F   F
  0.3220338983050866  0.4237288135593218  0.4348496156724977   F   F   F
  0.4745762711864430  0.2033898305084776  0.4534640111946402   F   F   F
  0.3762905459853632  0.9885463575258207  0.4645847906285877   T   T   T
  0.2782894160055183  0.7707408292253566  0.4921603711557350   T   T   T
  0.4307678172387765  0.5474185400421846  0.5109305163247250   T   T   T
  0.3339956315728070  0.3302737046704848  0.5290256107972232   T   T   T
  0.4871532064038959  0.1062536646621983  0.5408128739547114   T   T   T
  0.3889839024781663  0.8829077399696045  0.5681120795999544   T   T   T
  0.2902515458134066  0.6694807462163070  0.5853256684905611   T   T   T
  0.4419709398028578  0.4642669100766906  0.6087164720739776   T   T   T
  0.3437874099565215  0.2483620639787001  0.6256207711674872   T   T   T
  0.2468129794442664  0.0337643810024894  0.6294379519021285   T   T   T
  0.5169491525423737  0.8644067796610173  0.3976208246282127   F   F   F
  0.6694915254237301  0.6440677966101660  0.4162352201503552   F   F   F
  0.5720338983050866  0.4237288135593218  0.4348496156724977   F   F   F
  0.7245762711864430  0.2033898305084776  0.4534640111946402   F   F   F
  0.6262107792481257  0.9896661354929898  0.4638406227384437   T   T   T
  0.5288081949689024  0.7700265104567880  0.4922554444832626   T   T   T
  0.6820413242881690  0.5463597809360566  0.5102480177479483   T   T   T
  0.5835029271403774  0.3317471921616281  0.5296042085073799   T   T   T
  0.7357166705154221  0.1079281005477820  0.5410565079465732   T   T   T
  0.6396831378968941  0.8846687766040621  0.5674549023565241   T   T   T
  0.5408822459398724  0.6697127387110434  0.5854892317136987   T   T   T
  0.6924993544314001  0.4642119527924886  0.6082299060135467   T   T   T
  0.5927390512129554  0.2467053020901252  0.6261851853695443   T   T   T
  0.4966530340298193  0.0288394750666883  0.6299546295159291   T   T   T
  0.7669491525423737  0.8644067796610173  0.3976208246282127   F   F   F
  0.9194915254237301  0.6440677966101660  0.4162352201503552   F   F   F
  0.8220338983050866  0.4237288135593218  0.4348496156724977   F   F   F
  0.9745762711864430  0.2033898305084776  0.4534640111946402   F   F   F
  0.8763729327975498  0.9893730203715899  0.4639464810872849   T   T   T
  0.7786742385011923  0.7709097275838325  0.4918659289598524   T   T   T
  0.9330399847071918  0.5442332851421849  0.5104585356725266   T   T   T
  0.8339258702452513  0.3290246861455223  0.5299099491766195   T   T   T
  0.9856941468784461  0.1050755666447219  0.5404977234061865   T   T   T
  0.8897157697588539  0.8852183075073549  0.5682776989243797   T   T   T
  0.7914175323641379  0.6723303075608460  0.5835029280716064   T   T   T
  0.9425282196473895  0.4630943544057520  0.6088027999274831   T   T   T
  0.8408638141646553  0.2495582531142564  0.6279506860613788   T   T   T
  0.7455595132793127  0.0345467856210263  0.6303978915506696   T   T   T
  0.4556498576496713  0.3454404296339677  0.6676692365003508   T   T   T
  0.4521693773651014  0.3622214547558473  0.7103437837971465   T   T   T
  0.8207422249165218  0.4215056990475768  0.6628470910092691   T   T   T
  0.8172122282920675  0.4466971766777212  0.7047195742722864   T   T   T
  0.0978192426794479  0.2368750399870437  0.7011467224895114   T   T   T
  0.1684695018869539  0.2725342232526040  0.7128532505400300   T   T   T
 
  0.00000000E+00  0.00000000E+00  0.00000000E+00
  0.00000000E+00  0.00000000E+00  0.00000000E+00
  0.00000000E+00  0.00000000E+00  0.00000000E+00
  0.00000000E+00  0.00000000E+00  0.00000000E+00
  0.00000000E+00  0.00000000E+00  0.00000000E+00
  0.00000000E+00  0.00000000E+00  0.00000000E+00
  0.00000000E+00  0.00000000E+00  0.00000000E+00
  0.00000000E+00  0.00000000E+00  0.00000000E+00
  0.00000000E+00  0.00000000E+00  0.00000000E+00
  0.00000000E+00  0.00000000E+00  0.00000000E+00
  0.00000000E+00  0.00000000E+00  0.00000000E+00
  0.00000000E+00  0.00000000E+00  0.00000000E+00
  0.00000000E+00  0.00000000E+00  0.00000000E+00
  0.00000000E+00  0.00000000E+00  0.00000000E+00
  0.00000000E+00  0.00000000E+00  0.00000000E+00
  0.00000000E+00  0.00000000E+00  0.00000000E+00
  0.00000000E+00  0.00000000E+00  0.00000000E+00
  0.00000000E+00  0.00000000E+00  0.00000000E+00
  0.00000000E+00  0.00000000E+00  0.00000000E+00
  0.00000000E+00  0.00000000E+00  0.00000000E+00
  0.00000000E+00  0.00000000E+00  0.00000000E+00
  0.00000000E+00  0.00000000E+00  0.00000000E+00
  0.00000000E+00  0.00000000E+00  0.00000000E+00
  0.00000000E+00  0.00000000E+00  0.00000000E+00
  0.00000000E+00  0.00000000E+00  0.00000000E+00
  0.00000000E+00  0.00000000E+00  0.00000000E+00
  0.00000000E+00  0.00000000E+00  0.00000000E+00
  0.00000000E+00  0.00000000E+00  0.00000000E+00
  0.00000000E+00  0.00000000E+00  0.00000000E+00
  0.00000000E+00  0.00000000E+00  0.00000000E+00
  0.00000000E+00  0.00000000E+00  0.00000000E+00
  0.00000000E+00  0.00000000E+00  0.00000000E+00
  0.00000000E+00  0.00000000E+00  0.00000000E+00
  0.00000000E+00  0.00000000E+00  0.00000000E+00
  0.00000000E+00  0.00000000E+00  0.00000000E+00
  0.00000000E+00  0.00000000E+00  0.00000000E+00
  0.00000000E+00  0.00000000E+00  0.00000000E+00
  0.00000000E+00  0.00000000E+00  0.00000000E+00
  0.00000000E+00  0.00000000E+00  0.00000000E+00
  0.00000000E+00  0.00000000E+00  0.00000000E+00
  0.00000000E+00  0.00000000E+00  0.00000000E+00
  0.00000000E+00  0.00000000E+00  0.00000000E+00
  0.00000000E+00  0.00000000E+00  0.00000000E+00
  0.00000000E+00  0.00000000E+00  0.00000000E+00
  0.00000000E+00  0.00000000E+00  0.00000000E+00
  0.00000000E+00  0.00000000E+00  0.00000000E+00
  0.00000000E+00  0.00000000E+00  0.00000000E+00
  0.00000000E+00  0.00000000E+00  0.00000000E+00
  0.00000000E+00  0.00000000E+00  0.00000000E+00
  0.00000000E+00  0.00000000E+00  0.00000000E+00
  0.00000000E+00  0.00000000E+00  0.00000000E+00
  0.00000000E+00  0.00000000E+00  0.00000000E+00
  0.00000000E+00  0.00000000E+00  0.00000000E+00
  0.00000000E+00  0.00000000E+00  0.00000000E+00
  0.00000000E+00  0.00000000E+00  0.00000000E+00
  0.00000000E+00  0.00000000E+00  0.00000000E+00
  0.00000000E+00  0.00000000E+00  0.00000000E+00
  0.00000000E+00  0.00000000E+00  0.00000000E+00
  0.00000000E+00  0.00000000E+00  0.00000000E+00
  0.00000000E+00  0.00000000E+00  0.00000000E+00
  0.00000000E+00  0.00000000E+00  0.00000000E+00
  0.00000000E+00  0.00000000E+00  0.00000000E+00
