Pt  C  O  C  O  H                       
    1.000000000000000     
    11.2213408561008308    0.0000000000000000    0.0000000000000000
     1.4026676070126025   10.7740943252779040    0.0000000000000000
     0.0000000000000000    0.0000000000000000   27.7475611781839042
   Pt   C    O    C    O    H 
    56     1     1     1     2     1
Selective dynamics
Direct
  0.0169491525423737  0.8644067796610173  0.3976208246282127   F   F   F
  0.1694915254237301  0.6440677966101660  0.4162352201503552   F   F   F
  0.0720338983050866  0.4237288135593218  0.4348496156724977   F   F   F
  0.2245762711864430  0.2033898305084776  0.4534640111946402   F   F   F
  0.1273783816340876  0.9890706865733032  0.4660247449977069   T   T   T
  0.0280671258351734  0.7719273870055274  0.4924046746760741   T   T   T
  0.1800800685707290  0.5502714339931768  0.5087959014491501   T   T   T
  0.0835874356966640  0.3291014352312020  0.5267169807405213   T   T   T
  0.2371316084263434  0.1023815833961261  0.5450372956386107   T   T   T
  0.1381176358706038  0.8811905882071254  0.5688867123839826   T   T   T
  0.0403092899867043  0.6669127709405478  0.5860575465726560   T   T   T
  0.1890858721116427  0.4550076314399297  0.6023691326482675   T   T   T
  0.0937202258269664  0.2413074623872755  0.6189046591879699   T   T   T
  0.9930151463490998  0.0273277597496779  0.6318831565231852   T   T   T
  0.2669491525423737  0.8644067796610173  0.3976208246282127   F   F   F
  0.4194915254237301  0.6440677966101660  0.4162352201503552   F   F   F
  0.3220338983050866  0.4237288135593218  0.4348496156724977   F   F   F
  0.4745762711864430  0.2033898305084776  0.4534640111946402   F   F   F
  0.3755656552944580  0.9896512693818885  0.4656468222830740   T   T   T
  0.2781075849162888  0.7719767596750839  0.4921135638095069   T   T   T
  0.4329162910060819  0.5476257245710213  0.5107994296887228   T   T   T
  0.3338635444366767  0.3307864915529855  0.5273271320055550   T   T   T
  0.4878943105164961  0.1038341090284924  0.5416924101208603   T   T   T
  0.3907708920479584  0.8814534152577600  0.5694462134457433   T   T   T
  0.2898279572410382  0.6667009427643973  0.5837069716801551   T   T   T
  0.4435737214883209  0.4564923962715787  0.6074797905230473   T   T   T
  0.3386184621067179  0.2411443831407304  0.6175719583180804   T   T   T
  0.2452919216974327  0.0215981894271552  0.6360906622055018   T   T   T
  0.5169491525423737  0.8644067796610173  0.3976208246282127   F   F   F
  0.6694915254237301  0.6440677966101660  0.4162352201503552   F   F   F
  0.5720338983050866  0.4237288135593218  0.4348496156724977   F   F   F
  0.7245762711864430  0.2033898305084776  0.4534640111946402   F   F   F
  0.6260599861096176  0.9884098640570064  0.4649496519582506   T   T   T
  0.5278607463275462  0.7711810337411686  0.4922376150568338   T   T   T
  0.6820795600111585  0.5471123609278689  0.5094159783126180   T   T   T
  0.5846715049785034  0.3287392028222464  0.5299488789678798   T   T   T
  0.7367508141995369  0.1012901909477389  0.5412598214187641   T   T   T
  0.6402467657574593  0.8806335690184102  0.5688461029809114   T   T   T
  0.5429504509421051  0.6669277061743196  0.5849052610978160   T   T   T
  0.6954668896296660  0.4520553040708145  0.6037065405174524   T   T   T
  0.5956000047522808  0.2442620886731473  0.6254440014835917   T   T   T
  0.4966179066301669  0.0268299408386778  0.6333354523423971   T   T   T
  0.7669491525423737  0.8644067796610173  0.3976208246282127   F   F   F
  0.9194915254237301  0.6440677966101660  0.4162352201503552   F   F   F
  0.8220338983050866  0.4237288135593218  0.4348496156724977   F   F   F
  0.9745762711864430  0.2033898305084776  0.4534640111946402   F   F   F
  0.8765875127896918  0.9882990251819715  0.4645254316156361   T   T   T
  0.7780137016059202  0.7714126811342018  0.4927730153698240   T   T   T
  0.9304747891153844  0.5498558537123819  0.5093522019939084   T   T   T
  0.8342920534553903  0.3277037183753352  0.5272324898172429   T   T   T
  0.9860120130948697  0.1023930056398464  0.5410746146594323   T   T   T
  0.8878749758683564  0.8802792172182901  0.5698713981791439   T   T   T
  0.7909732397117288  0.6659871816185433  0.5863461707180957   T   T   T
  0.9420078589528780  0.4564079766177655  0.6032260059134207   T   T   T
  0.8498197261221218  0.2444928013848253  0.6203746818815606   T   T   T
  0.7510612109840903  0.0293137784025565  0.6334655719710340   T   T   T
  0.6110205634755148  0.1109028838697772  0.6795916970125933   T   T   T
  0.6115287626804349  0.1111954551457856  0.7227824131180942   T   T   T
  0.2510939434660325  0.9618185855004652  0.6988821796813799   T   T   T
  0.2549437116987097  0.9235675385631090  0.7379444953619017   T   T   T
  0.4276571062411405  0.4932941946001351  0.6772467981560948   T   T   T
  0.5096545277753085  0.4936474073547437  0.6894553171089254   T   T   T
 
  0.00000000E+00  0.00000000E+00  0.00000000E+00
  0.00000000E+00  0.00000000E+00  0.00000000E+00
  0.00000000E+00  0.00000000E+00  0.00000000E+00
  0.00000000E+00  0.00000000E+00  0.00000000E+00
  0.00000000E+00  0.00000000E+00  0.00000000E+00
  0.00000000E+00  0.00000000E+00  0.00000000E+00
  0.00000000E+00  0.00000000E+00  0.00000000E+00
  0.00000000E+00  0.00000000E+00  0.00000000E+00
  0.00000000E+00  0.00000000E+00  0.00000000E+00
  0.00000000E+00  0.00000000E+00  0.00000000E+00
  0.00000000E+00  0.00000000E+00  0.00000000E+00
  0.00000000E+00  0.00000000E+00  0.00000000E+00
  0.00000000E+00  0.00000000E+00  0.00000000E+00
  0.00000000E+00  0.00000000E+00  0.00000000E+00
  0.00000000E+00  0.00000000E+00  0.00000000E+00
  0.00000000E+00  0.00000000E+00  0.00000000E+00
  0.00000000E+00  0.00000000E+00  0.00000000E+00
  0.00000000E+00  0.00000000E+00  0.00000000E+00
  0.00000000E+00  0.00000000E+00  0.00000000E+00
  0.00000000E+00  0.00000000E+00  0.00000000E+00
  0.00000000E+00  0.00000000E+00  0.00000000E+00
  0.00000000E+00  0.00000000E+00  0.00000000E+00
  0.00000000E+00  0.00000000E+00  0.00000000E+00
  0.00000000E+00  0.00000000E+00  0.00000000E+00
  0.00000000E+00  0.00000000E+00  0.00000000E+00
  0.00000000E+00  0.00000000E+00  0.00000000E+00
  0.00000000E+00  0.00000000E+00  0.00000000E+00
  0.00000000E+00  0.00000000E+00  0.00000000E+00
  0.00000000E+00  0.00000000E+00  0.00000000E+00
  0.00000000E+00  0.00000000E+00  0.00000000E+00
  0.00000000E+00  0.00000000E+00  0.00000000E+00
  0.00000000E+00  0.00000000E+00  0.00000000E+00
  0.00000000E+00  0.00000000E+00  0.00000000E+00
  0.00000000E+00  0.00000000E+00  0.00000000E+00
  0.00000000E+00  0.00000000E+00  0.00000000E+00
  0.00000000E+00  0.00000000E+00  0.00000000E+00
  0.00000000E+00  0.00000000E+00  0.00000000E+00
  0.00000000E+00  0.00000000E+00  0.00000000E+00
  0.00000000E+00  0.00000000E+00  0.00000000E+00
  0.00000000E+00  0.00000000E+00  0.00000000E+00
  0.00000000E+00  0.00000000E+00  0.00000000E+00
  0.00000000E+00  0.00000000E+00  0.00000000E+00
  0.00000000E+00  0.00000000E+00  0.00000000E+00
  0.00000000E+00  0.00000000E+00  0.00000000E+00
  0.00000000E+00  0.00000000E+00  0.00000000E+00
  0.00000000E+00  0.00000000E+00  0.00000000E+00
  0.00000000E+00  0.00000000E+00  0.00000000E+00
  0.00000000E+00  0.00000000E+00  0.00000000E+00
  0.00000000E+00  0.00000000E+00  0.00000000E+00
  0.00000000E+00  0.00000000E+00  0.00000000E+00
  0.00000000E+00  0.00000000E+00  0.00000000E+00
  0.00000000E+00  0.00000000E+00  0.00000000E+00
  0.00000000E+00  0.00000000E+00  0.00000000E+00
  0.00000000E+00  0.00000000E+00  0.00000000E+00
  0.00000000E+00  0.00000000E+00  0.00000000E+00
  0.00000000E+00  0.00000000E+00  0.00000000E+00
  0.00000000E+00  0.00000000E+00  0.00000000E+00
  0.00000000E+00  0.00000000E+00  0.00000000E+00
  0.00000000E+00  0.00000000E+00  0.00000000E+00
  0.00000000E+00  0.00000000E+00  0.00000000E+00
  0.00000000E+00  0.00000000E+00  0.00000000E+00
  0.00000000E+00  0.00000000E+00  0.00000000E+00
