Pt  C  O  C  O  H                       
    1.000000000000000     
    11.2213408561008308    0.0000000000000000    0.0000000000000000
     1.4026676070126025   10.7740943252779040    0.0000000000000000
     0.0000000000000000    0.0000000000000000   27.7475611781839042
   Pt   C    O    C    O    H 
    56     1     1     1     2     1
Selective dynamics
Direct
  0.0169491525423737  0.8644067796610173  0.3976208246282127   F   F   F
  0.1694915254237301  0.6440677966101660  0.4162352201503552   F   F   F
  0.0720338983050866  0.4237288135593218  0.4348496156724977   F   F   F
  0.2245762711864430  0.2033898305084776  0.4534640111946402   F   F   F
  0.1274952026960722  0.9898325188419892  0.4654354141747630   T   T   T
  0.0306113881948034  0.7710956103804063  0.4929083750261326   T   T   T
  0.1823442970709764  0.5526356576828686  0.5102502827064840   T   T   T
  0.0854122981858293  0.3314075411165637  0.5267521968594934   T   T   T
  0.2397164602303093  0.1044006157053384  0.5453231289945873   T   T   T
  0.1427127853320202  0.8850296798971873  0.5671569531599322   T   T   T
  0.0440594661783780  0.6736090184565149  0.5904855902518606   T   T   T
  0.1968256158223619  0.4574014267927675  0.6029319296511502   T   T   T
  0.0977625121971565  0.2441732060464336  0.6186816997399811   T   T   T
  0.9967925352359567  0.0258609094235214  0.6312189436427122   T   T   T
  0.2669491525423737  0.8644067796610173  0.3976208246282127   F   F   F
  0.4194915254237301  0.6440677966101660  0.4162352201503552   F   F   F
  0.3220338983050866  0.4237288135593218  0.4348496156724977   F   F   F
  0.4745762711864430  0.2033898305084776  0.4534640111946402   F   F   F
  0.3758964357464468  0.9897553021040976  0.4657117300864657   T   T   T
  0.2805619967807717  0.7726267283965325  0.4923174025366072   T   T   T
  0.4340895194780963  0.5474640407915132  0.5088383910963681   T   T   T
  0.3346689677048106  0.3295426951234807  0.5267212070515142   T   T   T
  0.4899691946583137  0.1043524391929262  0.5418022794810814   T   T   T
  0.3946740656436568  0.8834431968954576  0.5699282158423878   T   T   T
  0.2972645790080141  0.6680474754568565  0.5844977285092351   T   T   T
  0.4475693464117242  0.4549752260287278  0.6033877671125526   T   T   T
  0.3433635459376839  0.2455963819283870  0.6190963349716659   T   T   T
  0.2486802767012809  0.0252652469604442  0.6361696539361807   T   T   T
  0.5169491525423737  0.8644067796610173  0.3976208246282127   F   F   F
  0.6694915254237301  0.6440677966101660  0.4162352201503552   F   F   F
  0.5720338983050866  0.4237288135593218  0.4348496156724977   F   F   F
  0.7245762711864430  0.2033898305084776  0.4534640111946402   F   F   F
  0.6263443379200567  0.9891188343727205  0.4647907334146884   T   T   T
  0.5301146856709475  0.7717312586668565  0.4924498229819217   T   T   T
  0.6830856141492416  0.5465101442726122  0.5093936460270497   T   T   T
  0.5862277369066660  0.3269757762572637  0.5295087558676754   T   T   T
  0.7379782724171708  0.1029096407131595  0.5414278144952601   T   T   T
  0.6417878178306989  0.8820030892231960  0.5691637525794816   T   T   T
  0.5445110807202570  0.6663428581112559  0.5855377341416564   T   T   T
  0.6964333597108946  0.4531120896086560  0.6041684748000380   T   T   T
  0.5969293009422055  0.2486370042419822  0.6275383664225054   T   T   T
  0.4996973437300984  0.0305364346324017  0.6335608443082172   T   T   T
  0.7669491525423737  0.8644067796610173  0.3976208246282127   F   F   F
  0.9194915254237301  0.6440677966101660  0.4162352201503552   F   F   F
  0.8220338983050866  0.4237288135593218  0.4348496156724977   F   F   F
  0.9745762711864430  0.2033898305084776  0.4534640111946402   F   F   F
  0.8773562596032205  0.9889838730439398  0.4642381213692574   T   T   T
  0.7794923957028584  0.7721322591452974  0.4925148365785086   T   T   T
  0.9335082883226160  0.5529534995925536  0.5105816487526248   T   T   T
  0.8359392547144578  0.3299646318931487  0.5271052902586060   T   T   T
  0.9877654078849647  0.1058636608120250  0.5412117115498498   T   T   T
  0.8885933807375361  0.8841942798637590  0.5678824539281812   T   T   T
  0.7913269765971089  0.6671287197220022  0.5851891689176375   T   T   T
  0.9446743049692586  0.4574439209769999  0.6024468033915615   T   T   T
  0.8535980597372448  0.2458810146964051  0.6202446516089524   T   T   T
  0.7540840539920102  0.0323189900664675  0.6334000656834724   T   T   T
  0.6160109486150892  0.1138416800388890  0.6803196516140437   T   T   T
  0.6165816262671844  0.1108146026704664  0.7234936722678201   T   T   T
  0.2541620257864965  0.9746041427584726  0.7000788682854618   T   T   T
  0.2577492165170637  0.9431681985761939  0.7400599519820643   T   T   T
  0.0362681229298957  0.7249177746477093  0.6594953916576013   T   T   T
  0.1191598234383595  0.7095065319871228  0.6713699982587559   T   T   T
 
  0.00000000E+00  0.00000000E+00  0.00000000E+00
  0.00000000E+00  0.00000000E+00  0.00000000E+00
  0.00000000E+00  0.00000000E+00  0.00000000E+00
  0.00000000E+00  0.00000000E+00  0.00000000E+00
  0.00000000E+00  0.00000000E+00  0.00000000E+00
  0.00000000E+00  0.00000000E+00  0.00000000E+00
  0.00000000E+00  0.00000000E+00  0.00000000E+00
  0.00000000E+00  0.00000000E+00  0.00000000E+00
  0.00000000E+00  0.00000000E+00  0.00000000E+00
  0.00000000E+00  0.00000000E+00  0.00000000E+00
  0.00000000E+00  0.00000000E+00  0.00000000E+00
  0.00000000E+00  0.00000000E+00  0.00000000E+00
  0.00000000E+00  0.00000000E+00  0.00000000E+00
  0.00000000E+00  0.00000000E+00  0.00000000E+00
  0.00000000E+00  0.00000000E+00  0.00000000E+00
  0.00000000E+00  0.00000000E+00  0.00000000E+00
  0.00000000E+00  0.00000000E+00  0.00000000E+00
  0.00000000E+00  0.00000000E+00  0.00000000E+00
  0.00000000E+00  0.00000000E+00  0.00000000E+00
  0.00000000E+00  0.00000000E+00  0.00000000E+00
  0.00000000E+00  0.00000000E+00  0.00000000E+00
  0.00000000E+00  0.00000000E+00  0.00000000E+00
  0.00000000E+00  0.00000000E+00  0.00000000E+00
  0.00000000E+00  0.00000000E+00  0.00000000E+00
  0.00000000E+00  0.00000000E+00  0.00000000E+00
  0.00000000E+00  0.00000000E+00  0.00000000E+00
  0.00000000E+00  0.00000000E+00  0.00000000E+00
  0.00000000E+00  0.00000000E+00  0.00000000E+00
  0.00000000E+00  0.00000000E+00  0.00000000E+00
  0.00000000E+00  0.00000000E+00  0.00000000E+00
  0.00000000E+00  0.00000000E+00  0.00000000E+00
  0.00000000E+00  0.00000000E+00  0.00000000E+00
  0.00000000E+00  0.00000000E+00  0.00000000E+00
  0.00000000E+00  0.00000000E+00  0.00000000E+00
  0.00000000E+00  0.00000000E+00  0.00000000E+00
  0.00000000E+00  0.00000000E+00  0.00000000E+00
  0.00000000E+00  0.00000000E+00  0.00000000E+00
  0.00000000E+00  0.00000000E+00  0.00000000E+00
  0.00000000E+00  0.00000000E+00  0.00000000E+00
  0.00000000E+00  0.00000000E+00  0.00000000E+00
  0.00000000E+00  0.00000000E+00  0.00000000E+00
  0.00000000E+00  0.00000000E+00  0.00000000E+00
  0.00000000E+00  0.00000000E+00  0.00000000E+00
  0.00000000E+00  0.00000000E+00  0.00000000E+00
  0.00000000E+00  0.00000000E+00  0.00000000E+00
  0.00000000E+00  0.00000000E+00  0.00000000E+00
  0.00000000E+00  0.00000000E+00  0.00000000E+00
  0.00000000E+00  0.00000000E+00  0.00000000E+00
  0.00000000E+00  0.00000000E+00  0.00000000E+00
  0.00000000E+00  0.00000000E+00  0.00000000E+00
  0.00000000E+00  0.00000000E+00  0.00000000E+00
  0.00000000E+00  0.00000000E+00  0.00000000E+00
  0.00000000E+00  0.00000000E+00  0.00000000E+00
  0.00000000E+00  0.00000000E+00  0.00000000E+00
  0.00000000E+00  0.00000000E+00  0.00000000E+00
  0.00000000E+00  0.00000000E+00  0.00000000E+00
  0.00000000E+00  0.00000000E+00  0.00000000E+00
  0.00000000E+00  0.00000000E+00  0.00000000E+00
  0.00000000E+00  0.00000000E+00  0.00000000E+00
  0.00000000E+00  0.00000000E+00  0.00000000E+00
  0.00000000E+00  0.00000000E+00  0.00000000E+00
  0.00000000E+00  0.00000000E+00  0.00000000E+00
