Pt  C  O  C  O  H                       
    1.000000000000000     
    11.2213408561008308    0.0000000000000000    0.0000000000000000
     1.4026676070126025   10.7740943252779040    0.0000000000000000
     0.0000000000000000    0.0000000000000000   27.7475611781839042
   Pt   C    O    C    O    H 
    56     1     1     1     2     1
Selective dynamics
Direct
  0.0169491525423737  0.8644067796610173  0.3976208246282127   F   F   F
  0.1694915254237301  0.6440677966101660  0.4162352201503552   F   F   F
  0.0720338983050866  0.4237288135593218  0.4348496156724977   F   F   F
  0.2245762711864430  0.2033898305084776  0.4534640111946402   F   F   F
  0.1268547955908771  0.9876102707491133  0.4647902266946229   T   T   T
  0.0283616445846963  0.7678967544484683  0.4928663926052457   T   T   T
  0.1835703048252428  0.5507756422781456  0.5123997369801794   T   T   T
  0.0822427173042714  0.3275298722691561  0.5279335492438768   T   T   T
  0.2344363245934765  0.0987431200786817  0.5417174345732345   T   T   T
  0.1416339793438529  0.8743692663941200  0.5699378957687172   T   T   T
  0.0418550908005320  0.6581934052322953  0.5880243660638472   T   T   T
  0.1909993345663451  0.4429157366476882  0.6049982100671650   T   T   T
  0.0985135379816449  0.2302892330183685  0.6190942042867917   T   T   T
  0.9975041761943710  0.0200350887929774  0.6320224730173281   T   T   T
  0.2669491525423737  0.8644067796610173  0.3976208246282127   F   F   F
  0.4194915254237301  0.6440677966101660  0.4162352201503552   F   F   F
  0.3220338983050866  0.4237288135593218  0.4348496156724977   F   F   F
  0.4745762711864430  0.2033898305084776  0.4534640111946402   F   F   F
  0.3766533923305801  0.9886183722866334  0.4650731039457490   T   T   T
  0.2776723448670694  0.7708396548429925  0.4924466164842861   T   T   T
  0.4309172294259322  0.5501547720456073  0.5089184631747911   T   T   T
  0.3321078367149146  0.3276651838654135  0.5260627535457767   T   T   T
  0.4898845253810970  0.0993376503635273  0.5417409459635707   T   T   T
  0.3898540898139495  0.8815451844487898  0.5652633434910648   T   T   T
  0.2902722261556259  0.6543221225579315  0.5889531360958513   T   T   T
  0.4458171021513574  0.4380127973120355  0.6007164870766453   T   T   T
  0.3451779607412248  0.2303733194271513  0.6170216596480754   T   T   T
  0.2486990958014880  0.0147800894655511  0.6360884960101709   T   T   T
  0.5169491525423737  0.8644067796610173  0.3976208246282127   F   F   F
  0.6694915254237301  0.6440677966101660  0.4162352201503552   F   F   F
  0.5720338983050866  0.4237288135593218  0.4348496156724977   F   F   F
  0.7245762711864430  0.2033898305084776  0.4534640111946402   F   F   F
  0.6262191613835990  0.9877383213703465  0.4649326359468376   T   T   T
  0.5302776256560484  0.7698637903127659  0.4924694447770556   T   T   T
  0.6789520354009924  0.5498234363047072  0.5128044253826605   T   T   T
  0.5865318976499738  0.3280589324910271  0.5270482306178009   T   T   T
  0.7397342151591553  0.1003409542212984  0.5412207757571682   T   T   T
  0.6403351178665799  0.8759884570411948  0.5696133901194562   T   T   T
  0.5429935387148294  0.6565044255722344  0.5888009874922624   T   T   T
  0.6950062211909644  0.4476126583570354  0.6092265151002485   T   T   T
  0.5943225682670021  0.2290000769842540  0.6181722298437491   T   T   T
  0.4980991678731719  0.0142824931646872  0.6360503011443238   T   T   T
  0.7669491525423737  0.8644067796610173  0.3976208246282127   F   F   F
  0.9194915254237301  0.6440677966101660  0.4162352201503552   F   F   F
  0.8220338983050866  0.4237288135593218  0.4348496156724977   F   F   F
  0.9745762711864430  0.2033898305084776  0.4534640111946402   F   F   F
  0.8766020828203662  0.9873306689669273  0.4648249338149719   T   T   T
  0.7798051021471952  0.7687588675262125  0.4923543289645654   T   T   T
  0.9325512732640873  0.5455949540204659  0.5109440646996655   T   T   T
  0.8348305024253388  0.3291585931418824  0.5289066317569369   T   T   T
  0.9858977663320583  0.0985907405974667  0.5413825275084631   T   T   T
  0.8924136148334599  0.8739638437572403  0.5692195181017673   T   T   T
  0.7942194920379663  0.6614313937332889  0.5855753243222953   T   T   T
  0.9452350823266938  0.4496571553930270  0.6100877629276669   T   T   T
  0.8471602203508846  0.2335085410416164  0.6252922203969060   T   T   T
  0.7494158340539973  0.0198253827211137  0.6316744112679291   T   T   T
  0.3766987232999188  0.9848845467196206  0.6866943625762565   T   T   T
  0.3806916200576569  0.9613447524342720  0.7283762226678332   T   T   T
  0.8238071174720450  0.4037112261775929  0.6627625961923213   T   T   T
  0.8208602163863175  0.4239059628251798  0.7051517537549971   T   T   T
  0.4111072160389463  0.6963218257474127  0.6454446534321178   T   T   T
  0.4214909832639994  0.6233475294018230  0.6667689963409180   T   T   T
 
  0.00000000E+00  0.00000000E+00  0.00000000E+00
  0.00000000E+00  0.00000000E+00  0.00000000E+00
  0.00000000E+00  0.00000000E+00  0.00000000E+00
  0.00000000E+00  0.00000000E+00  0.00000000E+00
  0.00000000E+00  0.00000000E+00  0.00000000E+00
  0.00000000E+00  0.00000000E+00  0.00000000E+00
  0.00000000E+00  0.00000000E+00  0.00000000E+00
  0.00000000E+00  0.00000000E+00  0.00000000E+00
  0.00000000E+00  0.00000000E+00  0.00000000E+00
  0.00000000E+00  0.00000000E+00  0.00000000E+00
  0.00000000E+00  0.00000000E+00  0.00000000E+00
  0.00000000E+00  0.00000000E+00  0.00000000E+00
  0.00000000E+00  0.00000000E+00  0.00000000E+00
  0.00000000E+00  0.00000000E+00  0.00000000E+00
  0.00000000E+00  0.00000000E+00  0.00000000E+00
  0.00000000E+00  0.00000000E+00  0.00000000E+00
  0.00000000E+00  0.00000000E+00  0.00000000E+00
  0.00000000E+00  0.00000000E+00  0.00000000E+00
  0.00000000E+00  0.00000000E+00  0.00000000E+00
  0.00000000E+00  0.00000000E+00  0.00000000E+00
  0.00000000E+00  0.00000000E+00  0.00000000E+00
  0.00000000E+00  0.00000000E+00  0.00000000E+00
  0.00000000E+00  0.00000000E+00  0.00000000E+00
  0.00000000E+00  0.00000000E+00  0.00000000E+00
  0.00000000E+00  0.00000000E+00  0.00000000E+00
  0.00000000E+00  0.00000000E+00  0.00000000E+00
  0.00000000E+00  0.00000000E+00  0.00000000E+00
  0.00000000E+00  0.00000000E+00  0.00000000E+00
  0.00000000E+00  0.00000000E+00  0.00000000E+00
  0.00000000E+00  0.00000000E+00  0.00000000E+00
  0.00000000E+00  0.00000000E+00  0.00000000E+00
  0.00000000E+00  0.00000000E+00  0.00000000E+00
  0.00000000E+00  0.00000000E+00  0.00000000E+00
  0.00000000E+00  0.00000000E+00  0.00000000E+00
  0.00000000E+00  0.00000000E+00  0.00000000E+00
  0.00000000E+00  0.00000000E+00  0.00000000E+00
  0.00000000E+00  0.00000000E+00  0.00000000E+00
  0.00000000E+00  0.00000000E+00  0.00000000E+00
  0.00000000E+00  0.00000000E+00  0.00000000E+00
  0.00000000E+00  0.00000000E+00  0.00000000E+00
  0.00000000E+00  0.00000000E+00  0.00000000E+00
  0.00000000E+00  0.00000000E+00  0.00000000E+00
  0.00000000E+00  0.00000000E+00  0.00000000E+00
  0.00000000E+00  0.00000000E+00  0.00000000E+00
  0.00000000E+00  0.00000000E+00  0.00000000E+00
  0.00000000E+00  0.00000000E+00  0.00000000E+00
  0.00000000E+00  0.00000000E+00  0.00000000E+00
  0.00000000E+00  0.00000000E+00  0.00000000E+00
  0.00000000E+00  0.00000000E+00  0.00000000E+00
  0.00000000E+00  0.00000000E+00  0.00000000E+00
  0.00000000E+00  0.00000000E+00  0.00000000E+00
  0.00000000E+00  0.00000000E+00  0.00000000E+00
  0.00000000E+00  0.00000000E+00  0.00000000E+00
  0.00000000E+00  0.00000000E+00  0.00000000E+00
  0.00000000E+00  0.00000000E+00  0.00000000E+00
  0.00000000E+00  0.00000000E+00  0.00000000E+00
  0.00000000E+00  0.00000000E+00  0.00000000E+00
  0.00000000E+00  0.00000000E+00  0.00000000E+00
  0.00000000E+00  0.00000000E+00  0.00000000E+00
  0.00000000E+00  0.00000000E+00  0.00000000E+00
  0.00000000E+00  0.00000000E+00  0.00000000E+00
  0.00000000E+00  0.00000000E+00  0.00000000E+00
