Pt  C  O  C  O  H                       
    1.000000000000000     
    11.2213408561008308    0.0000000000000000    0.0000000000000000
     1.4026676070126025   10.7740943252779040    0.0000000000000000
     0.0000000000000000    0.0000000000000000   27.7475611781839042
   Pt   C    O    C    O    H 
    56     1     1     1     2     1
Selective dynamics
Direct
  0.0169491525423737  0.8644067796610173  0.3976208246282127   F   F   F
  0.1694915254237301  0.6440677966101660  0.4162352201503552   F   F   F
  0.0720338983050866  0.4237288135593218  0.4348496156724977   F   F   F
  0.2245762711864430  0.2033898305084776  0.4534640111946402   F   F   F
  0.1277177083461485  0.9894611815389543  0.4653390278957311   T   T   T
  0.0288230268009088  0.7725216644583397  0.4928785837151799   T   T   T
  0.1798553705716040  0.5484557565340190  0.5093627237490274   T   T   T
  0.0852166223755350  0.3253973087539508  0.5287181690158603   T   T   T
  0.2368466230294278  0.1039535239759634  0.5445759148553406   T   T   T
  0.1394279418100541  0.8839567230116306  0.5698966383751576   T   T   T
  0.0430826927874830  0.6688234904540938  0.5858269755008643   T   T   T
  0.1902722499303764  0.4550147572052852  0.6035701788044278   T   T   T
  0.0953878664522681  0.2444674046956211  0.6261080063856747   T   T   T
  0.9920505387287456  0.0295685129373145  0.6317433568741674   T   T   T
  0.2669491525423737  0.8644067796610173  0.3976208246282127   F   F   F
  0.4194915254237301  0.6440677966101660  0.4162352201503552   F   F   F
  0.3220338983050866  0.4237288135593218  0.4348496156724977   F   F   F
  0.4745762711864430  0.2033898305084776  0.4534640111946402   F   F   F
  0.3752673305706977  0.9904235243837668  0.4646357123121792   T   T   T
  0.2788426855415795  0.7706054767195830  0.4924741100546803   T   T   T
  0.4324645722335058  0.5471602841206595  0.5111740267291410   T   T   T
  0.3339606357016676  0.3312769940293308  0.5273619697059063   T   T   T
  0.4877490672891339  0.1057823633568980  0.5412468639397793   T   T   T
  0.3906507441455868  0.8827102004776795  0.5681983307325406   T   T   T
  0.2916946366198850  0.6664139384007668  0.5851350965327189   T   T   T
  0.4410947982584354  0.4573163113785663  0.6092158113353382   T   T   T
  0.3386689138451962  0.2388171622075474  0.6187840548741310   T   T   T
  0.2548627792629934  0.0222160562288955  0.6350622528478976   T   T   T
  0.5169491525423737  0.8644067796610173  0.3976208246282127   F   F   F
  0.6694915254237301  0.6440677966101660  0.4162352201503552   F   F   F
  0.5720338983050866  0.4237288135593218  0.4348496156724977   F   F   F
  0.7245762711864430  0.2033898305084776  0.4534640111946402   F   F   F
  0.6259882901903735  0.9889123026122051  0.4643645620941687   T   T   T
  0.5280534489162529  0.7705397788324962  0.4923942711665131   T   T   T
  0.6835920229593225  0.5450536386272744  0.5093727342554314   T   T   T
  0.5841557262062336  0.3286939708697785  0.5295991455596789   T   T   T
  0.7363356758962557  0.1039187333433267  0.5410745022571798   T   T   T
  0.6413449680902920  0.8810125998020889  0.5683069421022594   T   T   T
  0.5423072181663285  0.6662062217187678  0.5846219296059895   T   T   T
  0.6992024548495588  0.4566688051678411  0.6034674751377930   T   T   T
  0.5962172232643003  0.2490617104493501  0.6303068442203532   T   T   T
  0.5018717069848867  0.0301200377111134  0.6309786713349294   T   T   T
  0.7669491525423737  0.8644067796610173  0.3976208246282127   F   F   F
  0.9194915254237301  0.6440677966101660  0.4162352201503552   F   F   F
  0.8220338983050866  0.4237288135593218  0.4348496156724977   F   F   F
  0.9745762711864430  0.2033898305084776  0.4534640111946402   F   F   F
  0.8765716560676450  0.9885113128389043  0.4640171313329996   T   T   T
  0.7784516569365768  0.7707259373360370  0.4924115585583401   T   T   T
  0.9320438846089623  0.5464616532115895  0.5091011765362815   T   T   T
  0.8346086037464435  0.3246941450064934  0.5296638651196947   T   T   T
  0.9862915360865874  0.1023705610694453  0.5410695914035561   T   T   T
  0.8895521053187118  0.8822171256439257  0.5695927719235757   T   T   T
  0.7929813330847602  0.6676479098799050  0.5853094773070423   T   T   T
  0.9449532311911232  0.4575858402889933  0.6024893184601101   T   T   T
  0.8443282054788511  0.2502401472846443  0.6292490884983210   T   T   T
  0.7416489704232151  0.0338374397360212  0.6304654564738105   T   T   T
  0.5082476338154489  0.3844146649612660  0.6711232476280514   T   T   T
  0.5031874660677066  0.4067087238515523  0.7128566859101970   T   T   T
  0.9778822219246899  0.1902644342635933  0.6786455465001728   T   T   T
  0.9817543842026983  0.1940615837075490  0.7215718886180784   T   T   T
  0.2518658228261774  0.9572089478009824  0.7009049064927197   T   T   T
  0.3335333909221671  0.9283414719319004  0.7119703324420310   T   T   T
 
  0.00000000E+00  0.00000000E+00  0.00000000E+00
  0.00000000E+00  0.00000000E+00  0.00000000E+00
  0.00000000E+00  0.00000000E+00  0.00000000E+00
  0.00000000E+00  0.00000000E+00  0.00000000E+00
  0.00000000E+00  0.00000000E+00  0.00000000E+00
  0.00000000E+00  0.00000000E+00  0.00000000E+00
  0.00000000E+00  0.00000000E+00  0.00000000E+00
  0.00000000E+00  0.00000000E+00  0.00000000E+00
  0.00000000E+00  0.00000000E+00  0.00000000E+00
  0.00000000E+00  0.00000000E+00  0.00000000E+00
  0.00000000E+00  0.00000000E+00  0.00000000E+00
  0.00000000E+00  0.00000000E+00  0.00000000E+00
  0.00000000E+00  0.00000000E+00  0.00000000E+00
  0.00000000E+00  0.00000000E+00  0.00000000E+00
  0.00000000E+00  0.00000000E+00  0.00000000E+00
  0.00000000E+00  0.00000000E+00  0.00000000E+00
  0.00000000E+00  0.00000000E+00  0.00000000E+00
  0.00000000E+00  0.00000000E+00  0.00000000E+00
  0.00000000E+00  0.00000000E+00  0.00000000E+00
  0.00000000E+00  0.00000000E+00  0.00000000E+00
  0.00000000E+00  0.00000000E+00  0.00000000E+00
  0.00000000E+00  0.00000000E+00  0.00000000E+00
  0.00000000E+00  0.00000000E+00  0.00000000E+00
  0.00000000E+00  0.00000000E+00  0.00000000E+00
  0.00000000E+00  0.00000000E+00  0.00000000E+00
  0.00000000E+00  0.00000000E+00  0.00000000E+00
  0.00000000E+00  0.00000000E+00  0.00000000E+00
  0.00000000E+00  0.00000000E+00  0.00000000E+00
  0.00000000E+00  0.00000000E+00  0.00000000E+00
  0.00000000E+00  0.00000000E+00  0.00000000E+00
  0.00000000E+00  0.00000000E+00  0.00000000E+00
  0.00000000E+00  0.00000000E+00  0.00000000E+00
  0.00000000E+00  0.00000000E+00  0.00000000E+00
  0.00000000E+00  0.00000000E+00  0.00000000E+00
  0.00000000E+00  0.00000000E+00  0.00000000E+00
  0.00000000E+00  0.00000000E+00  0.00000000E+00
  0.00000000E+00  0.00000000E+00  0.00000000E+00
  0.00000000E+00  0.00000000E+00  0.00000000E+00
  0.00000000E+00  0.00000000E+00  0.00000000E+00
  0.00000000E+00  0.00000000E+00  0.00000000E+00
  0.00000000E+00  0.00000000E+00  0.00000000E+00
  0.00000000E+00  0.00000000E+00  0.00000000E+00
  0.00000000E+00  0.00000000E+00  0.00000000E+00
  0.00000000E+00  0.00000000E+00  0.00000000E+00
  0.00000000E+00  0.00000000E+00  0.00000000E+00
  0.00000000E+00  0.00000000E+00  0.00000000E+00
  0.00000000E+00  0.00000000E+00  0.00000000E+00
  0.00000000E+00  0.00000000E+00  0.00000000E+00
  0.00000000E+00  0.00000000E+00  0.00000000E+00
  0.00000000E+00  0.00000000E+00  0.00000000E+00
  0.00000000E+00  0.00000000E+00  0.00000000E+00
  0.00000000E+00  0.00000000E+00  0.00000000E+00
  0.00000000E+00  0.00000000E+00  0.00000000E+00
  0.00000000E+00  0.00000000E+00  0.00000000E+00
  0.00000000E+00  0.00000000E+00  0.00000000E+00
  0.00000000E+00  0.00000000E+00  0.00000000E+00
  0.00000000E+00  0.00000000E+00  0.00000000E+00
  0.00000000E+00  0.00000000E+00  0.00000000E+00
  0.00000000E+00  0.00000000E+00  0.00000000E+00
  0.00000000E+00  0.00000000E+00  0.00000000E+00
  0.00000000E+00  0.00000000E+00  0.00000000E+00
  0.00000000E+00  0.00000000E+00  0.00000000E+00
