Pt  C  O  C  O  H                       
    1.000000000000000     
    11.2213408561008308    0.0000000000000000    0.0000000000000000
     1.4026676070126025   10.7740943252779040    0.0000000000000000
     0.0000000000000000    0.0000000000000000   27.7475611781839042
   Pt   C    O    C    O    H 
    56     1     1     1     2     1
Selective dynamics
Direct
  0.0169491525423737  0.8644067796610173  0.3976208246282127   F   F   F
  0.1694915254237301  0.6440677966101660  0.4162352201503552   F   F   F
  0.0720338983050866  0.4237288135593218  0.4348496156724977   F   F   F
  0.2245762711864430  0.2033898305084776  0.4534640111946402   F   F   F
  0.1266149922039112  0.9881109696635954  0.4646170598042584   T   T   T
  0.0280426151586012  0.7712648873107659  0.4926879828071302   T   T   T
  0.1828461554725204  0.5526530475443638  0.5110114152100164   T   T   T
  0.0826475270361056  0.3337874776819881  0.5281185938037992   T   T   T
  0.2353365410684136  0.1058497728001039  0.5402940922680737   T   T   T
  0.1393286124991898  0.8827699085199491  0.5690286419632701   T   T   T
  0.0429451390925792  0.6690846231956034  0.5864866832294606   T   T   T
  0.1912990641008487  0.4577656946361597  0.6046411622361333   T   T   T
  0.0972725617762943  0.2453049654266281  0.6206245173361397   T   T   T
  0.9974282378485824  0.0322080659354073  0.6309196166777739   T   T   T
  0.2669491525423737  0.8644067796610173  0.3976208246282127   F   F   F
  0.4194915254237301  0.6440677966101660  0.4162352201503552   F   F   F
  0.3220338983050866  0.4237288135593218  0.4348496156724977   F   F   F
  0.4745762711864430  0.2033898305084776  0.4534640111946402   F   F   F
  0.3765675626091555  0.9879394251641165  0.4643793719718529   T   T   T
  0.2775824087031658  0.7720015028273862  0.4932058067040138   T   T   T
  0.4309084005797460  0.5526517079343198  0.5097161522864804   T   T   T
  0.3325317527041436  0.3323915248415084  0.5270849457268776   T   T   T
  0.4874289664059540  0.1072231902779461  0.5406182459382455   T   T   T
  0.3888060673842867  0.8874252138786985  0.5662651006029775   T   T   T
  0.2912410601318768  0.6716414501307779  0.5929422873361828   T   T   T
  0.4418724420257046  0.4532710381583180  0.6025316691589265   T   T   T
  0.3400899927160306  0.2455340517923353  0.6198752688540692   T   T   T
  0.2460321209140208  0.0312852279992053  0.6306908449215810   T   T   T
  0.5169491525423737  0.8644067796610173  0.3976208246282127   F   F   F
  0.6694915254237301  0.6440677966101660  0.4162352201503552   F   F   F
  0.5720338983050866  0.4237288135593218  0.4348496156724977   F   F   F
  0.7245762711864430  0.2033898305084776  0.4534640111946402   F   F   F
  0.6263179757836647  0.9882292969695756  0.4647002709627278   T   T   T
  0.5293353913673844  0.7707616843816264  0.4929824789023839   T   T   T
  0.6786722828397218  0.5501022245402429  0.5113708784067582   T   T   T
  0.5833028914354793  0.3311131426440214  0.5314957990830624   T   T   T
  0.7376776416115590  0.1080329400976346  0.5412323856203729   T   T   T
  0.6404287045620314  0.8847126013980429  0.5682670158997121   T   T   T
  0.5398617629072935  0.6722410720342358  0.5919409698759623   T   T   T
  0.6939060559068913  0.4608371039051127  0.6084039065359067   T   T   T
  0.5919372019020092  0.2480231677267015  0.6263184029265647   T   T   T
  0.4940455219901037  0.0314963746828655  0.6294491227771939   T   T   T
  0.7669491525423737  0.8644067796610173  0.3976208246282127   F   F   F
  0.9194915254237301  0.6440677966101660  0.4162352201503552   F   F   F
  0.8220338983050866  0.4237288135593218  0.4348496156724977   F   F   F
  0.9745762711864430  0.2033898305084776  0.4534640111946402   F   F   F
  0.8762725229517780  0.9891386752083796  0.4648436131655225   T   T   T
  0.7791387806164234  0.7716313154915114  0.4919127138468576   T   T   T
  0.9307666410320284  0.5491780999124780  0.5107613637207001   T   T   T
  0.8329448924372129  0.3329605209030614  0.5289593258457951   T   T   T
  0.9859132220890242  0.1060649047056675  0.5408965708820086   T   T   T
  0.8906347268007808  0.8826393327195330  0.5690965142766166   T   T   T
  0.7901998155133715  0.6707147388385506  0.5840633829455396   T   T   T
  0.9458164314360302  0.4624533865028104  0.6097081810715124   T   T   T
  0.8490655666543437  0.2463638428222408  0.6251978655641171   T   T   T
  0.7482632065693614  0.0330938407171450  0.6299702078220887   T   T   T
  0.4147606464041456  0.6901804556402177  0.6445820107847788   T   T   T
  0.4125812151186564  0.7125205808874201  0.6863330039880883   T   T   T
  0.8261581166500207  0.4159985174108721  0.6619371080126183   T   T   T
  0.8192886584711420  0.4346449378432874  0.7045317099754161   T   T   T
  0.5880867682010367  0.2440246684170277  0.6977833630744930   T   T   T
  0.6518483586367390  0.2907871920097856  0.7091210280452865   T   T   T
 
  0.00000000E+00  0.00000000E+00  0.00000000E+00
  0.00000000E+00  0.00000000E+00  0.00000000E+00
  0.00000000E+00  0.00000000E+00  0.00000000E+00
  0.00000000E+00  0.00000000E+00  0.00000000E+00
  0.00000000E+00  0.00000000E+00  0.00000000E+00
  0.00000000E+00  0.00000000E+00  0.00000000E+00
  0.00000000E+00  0.00000000E+00  0.00000000E+00
  0.00000000E+00  0.00000000E+00  0.00000000E+00
  0.00000000E+00  0.00000000E+00  0.00000000E+00
  0.00000000E+00  0.00000000E+00  0.00000000E+00
  0.00000000E+00  0.00000000E+00  0.00000000E+00
  0.00000000E+00  0.00000000E+00  0.00000000E+00
  0.00000000E+00  0.00000000E+00  0.00000000E+00
  0.00000000E+00  0.00000000E+00  0.00000000E+00
  0.00000000E+00  0.00000000E+00  0.00000000E+00
  0.00000000E+00  0.00000000E+00  0.00000000E+00
  0.00000000E+00  0.00000000E+00  0.00000000E+00
  0.00000000E+00  0.00000000E+00  0.00000000E+00
  0.00000000E+00  0.00000000E+00  0.00000000E+00
  0.00000000E+00  0.00000000E+00  0.00000000E+00
  0.00000000E+00  0.00000000E+00  0.00000000E+00
  0.00000000E+00  0.00000000E+00  0.00000000E+00
  0.00000000E+00  0.00000000E+00  0.00000000E+00
  0.00000000E+00  0.00000000E+00  0.00000000E+00
  0.00000000E+00  0.00000000E+00  0.00000000E+00
  0.00000000E+00  0.00000000E+00  0.00000000E+00
  0.00000000E+00  0.00000000E+00  0.00000000E+00
  0.00000000E+00  0.00000000E+00  0.00000000E+00
  0.00000000E+00  0.00000000E+00  0.00000000E+00
  0.00000000E+00  0.00000000E+00  0.00000000E+00
  0.00000000E+00  0.00000000E+00  0.00000000E+00
  0.00000000E+00  0.00000000E+00  0.00000000E+00
  0.00000000E+00  0.00000000E+00  0.00000000E+00
  0.00000000E+00  0.00000000E+00  0.00000000E+00
  0.00000000E+00  0.00000000E+00  0.00000000E+00
  0.00000000E+00  0.00000000E+00  0.00000000E+00
  0.00000000E+00  0.00000000E+00  0.00000000E+00
  0.00000000E+00  0.00000000E+00  0.00000000E+00
  0.00000000E+00  0.00000000E+00  0.00000000E+00
  0.00000000E+00  0.00000000E+00  0.00000000E+00
  0.00000000E+00  0.00000000E+00  0.00000000E+00
  0.00000000E+00  0.00000000E+00  0.00000000E+00
  0.00000000E+00  0.00000000E+00  0.00000000E+00
  0.00000000E+00  0.00000000E+00  0.00000000E+00
  0.00000000E+00  0.00000000E+00  0.00000000E+00
  0.00000000E+00  0.00000000E+00  0.00000000E+00
  0.00000000E+00  0.00000000E+00  0.00000000E+00
  0.00000000E+00  0.00000000E+00  0.00000000E+00
  0.00000000E+00  0.00000000E+00  0.00000000E+00
  0.00000000E+00  0.00000000E+00  0.00000000E+00
  0.00000000E+00  0.00000000E+00  0.00000000E+00
  0.00000000E+00  0.00000000E+00  0.00000000E+00
  0.00000000E+00  0.00000000E+00  0.00000000E+00
  0.00000000E+00  0.00000000E+00  0.00000000E+00
  0.00000000E+00  0.00000000E+00  0.00000000E+00
  0.00000000E+00  0.00000000E+00  0.00000000E+00
  0.00000000E+00  0.00000000E+00  0.00000000E+00
  0.00000000E+00  0.00000000E+00  0.00000000E+00
  0.00000000E+00  0.00000000E+00  0.00000000E+00
  0.00000000E+00  0.00000000E+00  0.00000000E+00
  0.00000000E+00  0.00000000E+00  0.00000000E+00
  0.00000000E+00  0.00000000E+00  0.00000000E+00
