Pt  C  O  C  O  H                       
    1.000000000000000     
    11.2213408561008308    0.0000000000000000    0.0000000000000000
     1.4026676070126025   10.7740943252779040    0.0000000000000000
     0.0000000000000000    0.0000000000000000   27.7475611781839042
   Pt   C    O    C    O    H 
    56     1     1     1     2     1
Selective dynamics
Direct
  0.0169491525423737  0.8644067796610173  0.3976208246282127   F   F   F
  0.1694915254237301  0.6440677966101660  0.4162352201503552   F   F   F
  0.0720338983050866  0.4237288135593218  0.4348496156724977   F   F   F
  0.2245762711864430  0.2033898305084776  0.4534640111946402   F   F   F
  0.1262860992943527  0.9890435022214565  0.4646443922581943   T   T   T
  0.0290095681057235  0.7707496689266385  0.4924657556855672   T   T   T
  0.1817567431090507  0.5461592888306218  0.5092543214551342   T   T   T
  0.0842795329607947  0.3273645304321903  0.5279377733077866   T   T   T
  0.2384717257699533  0.1050639194038260  0.5414327008281000   T   T   T
  0.1383986128460782  0.8834854241749651  0.5692452421853774   T   T   T
  0.0410725050952920  0.6681765376287915  0.5852727495106407   T   T   T
  0.1917876165949039  0.4585189684193210  0.6039828917923991   T   T   T
  0.1002375162884062  0.2473512370675799  0.6217930211823525   T   T   T
  0.0016703378048017  0.0313607313886959  0.6329333838811068   T   T   T
  0.2669491525423737  0.8644067796610173  0.3976208246282127   F   F   F
  0.4194915254237301  0.6440677966101660  0.4162352201503552   F   F   F
  0.3220338983050866  0.4237288135593218  0.4348496156724977   F   F   F
  0.4745762711864430  0.2033898305084776  0.4534640111946402   F   F   F
  0.3761401736963214  0.9893530159919685  0.4642764614439320   T   T   T
  0.2785428987834834  0.7714079514240079  0.4921736404714349   T   T   T
  0.4312158173583177  0.5468949217696644  0.5082751585419976   T   T   T
  0.3338890752848385  0.3273498750340671  0.5295133938379345   T   T   T
  0.4875558812077082  0.1052284859267569  0.5405477439402322   T   T   T
  0.3888286440263805  0.8823481398650795  0.5679329670075514   T   T   T
  0.2892999094262862  0.6687573470278126  0.5848352216613055   T   T   T
  0.4393239340005810  0.4594024215571108  0.6013010687333735   T   T   T
  0.3419304693372160  0.2491582653924027  0.6307297378617632   T   T   T
  0.2469537493819731  0.0306254684902194  0.6311279350945558   T   T   T
  0.5169491525423737  0.8644067796610173  0.3976208246282127   F   F   F
  0.6694915254237301  0.6440677966101660  0.4162352201503552   F   F   F
  0.5720338983050866  0.4237288135593218  0.4348496156724977   F   F   F
  0.7245762711864430  0.2033898305084776  0.4534640111946402   F   F   F
  0.6270137856008025  0.9894974926841512  0.4641728983522300   T   T   T
  0.5282801554049710  0.7712833190453672  0.4916053365433148   T   T   T
  0.6822016369099069  0.5440317248356704  0.5109369830764843   T   T   T
  0.5845493596811469  0.3281761411658657  0.5309343409629521   T   T   T
  0.7362964843967488  0.1043595254577303  0.5419731500047270   T   T   T
  0.6411677856447586  0.8820168487994743  0.5686472255137707   T   T   T
  0.5412383024668667  0.6679271759047923  0.5828506319819782   T   T   T
  0.6945029097633376  0.4588443443099852  0.6087490871081264   T   T   T
  0.5877744925462386  0.2492030183738289  0.6292953317446653   T   T   T
  0.4943533027042455  0.0268638752198089  0.6289967739472009   T   T   T
  0.7669491525423737  0.8644067796610173  0.3976208246282127   F   F   F
  0.9194915254237301  0.6440677966101660  0.4162352201503552   F   F   F
  0.8220338983050866  0.4237288135593218  0.4348496156724977   F   F   F
  0.9745762711864430  0.2033898305084776  0.4534640111946402   F   F   F
  0.8766414062531758  0.9894474412231778  0.4644475732118094   T   T   T
  0.7782097852112037  0.7707336849583692  0.4918607703551310   T   T   T
  0.9322432423758770  0.5458079085270489  0.5092289410848714   T   T   T
  0.8341042626247274  0.3276265694398131  0.5307520266742854   T   T   T
  0.9870315447153060  0.1044485974242289  0.5413855493487539   T   T   T
  0.8901472863190438  0.8838256141171164  0.5677917377849082   T   T   T
  0.7946040401850105  0.6679609737960662  0.5835764100835468   T   T   T
  0.9456974573739779  0.4531244736622091  0.6037453189843275   T   T   T
  0.8438291536637222  0.2462099038537274  0.6273746016238506   T   T   T
  0.7415137957708515  0.0295575453626029  0.6325847565822285   T   T   T
  0.4642876108688244  0.2703913763849319  0.6817072883121535   T   T   T
  0.4629282455288554  0.2905009381255734  0.7235708351300322   T   T   T
  0.8615726561034753  0.1063600164622862  0.6792366956973508   T   T   T
  0.8622154723718787  0.1012491634724002  0.7223752045887423   T   T   T
  0.6831179318170372  0.5089451054073106  0.6773731079867836   T   T   T
  0.7654723016777764  0.4965629527788638  0.6900128087745772   T   T   T
 
  0.00000000E+00  0.00000000E+00  0.00000000E+00
  0.00000000E+00  0.00000000E+00  0.00000000E+00
  0.00000000E+00  0.00000000E+00  0.00000000E+00
  0.00000000E+00  0.00000000E+00  0.00000000E+00
  0.00000000E+00  0.00000000E+00  0.00000000E+00
  0.00000000E+00  0.00000000E+00  0.00000000E+00
  0.00000000E+00  0.00000000E+00  0.00000000E+00
  0.00000000E+00  0.00000000E+00  0.00000000E+00
  0.00000000E+00  0.00000000E+00  0.00000000E+00
  0.00000000E+00  0.00000000E+00  0.00000000E+00
  0.00000000E+00  0.00000000E+00  0.00000000E+00
  0.00000000E+00  0.00000000E+00  0.00000000E+00
  0.00000000E+00  0.00000000E+00  0.00000000E+00
  0.00000000E+00  0.00000000E+00  0.00000000E+00
  0.00000000E+00  0.00000000E+00  0.00000000E+00
  0.00000000E+00  0.00000000E+00  0.00000000E+00
  0.00000000E+00  0.00000000E+00  0.00000000E+00
  0.00000000E+00  0.00000000E+00  0.00000000E+00
  0.00000000E+00  0.00000000E+00  0.00000000E+00
  0.00000000E+00  0.00000000E+00  0.00000000E+00
  0.00000000E+00  0.00000000E+00  0.00000000E+00
  0.00000000E+00  0.00000000E+00  0.00000000E+00
  0.00000000E+00  0.00000000E+00  0.00000000E+00
  0.00000000E+00  0.00000000E+00  0.00000000E+00
  0.00000000E+00  0.00000000E+00  0.00000000E+00
  0.00000000E+00  0.00000000E+00  0.00000000E+00
  0.00000000E+00  0.00000000E+00  0.00000000E+00
  0.00000000E+00  0.00000000E+00  0.00000000E+00
  0.00000000E+00  0.00000000E+00  0.00000000E+00
  0.00000000E+00  0.00000000E+00  0.00000000E+00
  0.00000000E+00  0.00000000E+00  0.00000000E+00
  0.00000000E+00  0.00000000E+00  0.00000000E+00
  0.00000000E+00  0.00000000E+00  0.00000000E+00
  0.00000000E+00  0.00000000E+00  0.00000000E+00
  0.00000000E+00  0.00000000E+00  0.00000000E+00
  0.00000000E+00  0.00000000E+00  0.00000000E+00
  0.00000000E+00  0.00000000E+00  0.00000000E+00
  0.00000000E+00  0.00000000E+00  0.00000000E+00
  0.00000000E+00  0.00000000E+00  0.00000000E+00
  0.00000000E+00  0.00000000E+00  0.00000000E+00
  0.00000000E+00  0.00000000E+00  0.00000000E+00
  0.00000000E+00  0.00000000E+00  0.00000000E+00
  0.00000000E+00  0.00000000E+00  0.00000000E+00
  0.00000000E+00  0.00000000E+00  0.00000000E+00
  0.00000000E+00  0.00000000E+00  0.00000000E+00
  0.00000000E+00  0.00000000E+00  0.00000000E+00
  0.00000000E+00  0.00000000E+00  0.00000000E+00
  0.00000000E+00  0.00000000E+00  0.00000000E+00
  0.00000000E+00  0.00000000E+00  0.00000000E+00
  0.00000000E+00  0.00000000E+00  0.00000000E+00
  0.00000000E+00  0.00000000E+00  0.00000000E+00
  0.00000000E+00  0.00000000E+00  0.00000000E+00
  0.00000000E+00  0.00000000E+00  0.00000000E+00
  0.00000000E+00  0.00000000E+00  0.00000000E+00
  0.00000000E+00  0.00000000E+00  0.00000000E+00
  0.00000000E+00  0.00000000E+00  0.00000000E+00
  0.00000000E+00  0.00000000E+00  0.00000000E+00
  0.00000000E+00  0.00000000E+00  0.00000000E+00
  0.00000000E+00  0.00000000E+00  0.00000000E+00
  0.00000000E+00  0.00000000E+00  0.00000000E+00
  0.00000000E+00  0.00000000E+00  0.00000000E+00
  0.00000000E+00  0.00000000E+00  0.00000000E+00
