Pt  C  O  C  O  H                       
    1.000000000000000     
    11.2213408561008308    0.0000000000000000    0.0000000000000000
     1.4026676070126025   10.7740943252779040    0.0000000000000000
     0.0000000000000000    0.0000000000000000   27.7475611781839042
   Pt   C    O    C    O    H 
    56     1     1     1     2     1
Selective dynamics
Direct
  0.0169491525423737  0.8644067796610173  0.3976208246282127   F   F   F
  0.1694915254237301  0.6440677966101660  0.4162352201503552   F   F   F
  0.0720338983050866  0.4237288135593218  0.4348496156724977   F   F   F
  0.2245762711864430  0.2033898305084776  0.4534640111946402   F   F   F
  0.1263733337491873  0.9878300724755965  0.4650961008152339   T   T   T
  0.0287508301409581  0.7701160886727247  0.4924778085172597   T   T   T
  0.1809862662998136  0.5454544402077379  0.5112273499680332   T   T   T
  0.0866978939557837  0.3267532587032806  0.5286005707905821   T   T   T
  0.2383269055484827  0.1037046060164550  0.5411443393794138   T   T   T
  0.1391826372835502  0.8805998599832493  0.5689031503041052   T   T   T
  0.0410969198814706  0.6655857438234879  0.5854925605909466   T   T   T
  0.1907850527725330  0.4565202660387448  0.6106757826027355   T   T   T
  0.0947323928872446  0.2426281479905963  0.6289208109701898   T   T   T
  0.9981340323408006  0.0296777858701386  0.6311956727218305   T   T   T
  0.2669491525423737  0.8644067796610173  0.3976208246282127   F   F   F
  0.4194915254237301  0.6440677966101660  0.4162352201503552   F   F   F
  0.3220338983050866  0.4237288135593218  0.4348496156724977   F   F   F
  0.4745762711864430  0.2033898305084776  0.4534640111946402   F   F   F
  0.3766695143558866  0.9880275329406610  0.4639846504274714   T   T   T
  0.2782407220029767  0.7693080034430075  0.4922191978887340   T   T   T
  0.4313165331334624  0.5498016844873521  0.5105037774592909   T   T   T
  0.3355711790862057  0.3316752359674795  0.5293818829483422   T   T   T
  0.4877006130648976  0.1012426033972359  0.5401552597045922   T   T   T
  0.3886785117984434  0.8808352341402576  0.5678077526227214   T   T   T
  0.2855464747256462  0.6663546636881865  0.5851766561186429   T   T   T
  0.4403146424103047  0.4579034129078439  0.6099373088570010   T   T   T
  0.3516117410652862  0.2402990811294748  0.6206206359887525   T   T   T
  0.2481239017971710  0.0276542690671050  0.6309622422682771   T   T   T
  0.5169491525423737  0.8644067796610173  0.3976208246282127   F   F   F
  0.6694915254237301  0.6440677966101660  0.4162352201503552   F   F   F
  0.5720338983050866  0.4237288135593218  0.4348496156724977   F   F   F
  0.7245762711864430  0.2033898305084776  0.4534640111946402   F   F   F
  0.6270217173090809  0.9873789654478550  0.4649150088973577   T   T   T
  0.5290476155716179  0.7689615487273629  0.4935009985143112   T   T   T
  0.6796464182546290  0.5503409320609638  0.5120048278061723   T   T   T
  0.5823574727185294  0.3321831995357880  0.5290182303204554   T   T   T
  0.7374561599207312  0.1026742406083464  0.5405197524888402   T   T   T
  0.6398800893183080  0.8778171784728669  0.5694018925354074   T   T   T
  0.5383337683798278  0.6701255480699420  0.5920957018239789   T   T   T
  0.6999732181858215  0.4534505028668550  0.6070443785236620   T   T   T
  0.5948187282903389  0.2404686391329608  0.6194674409799588   T   T   T
  0.4972619514373583  0.0262216278930704  0.6305542496038352   T   T   T
  0.7669491525423737  0.8644067796610173  0.3976208246282127   F   F   F
  0.9194915254237301  0.6440677966101660  0.4162352201503552   F   F   F
  0.8220338983050866  0.4237288135593218  0.4348496156724977   F   F   F
  0.9745762711864430  0.2033898305084776  0.4534640111946402   F   F   F
  0.8768403691025913  0.9885695981309111  0.4643272271676678   T   T   T
  0.7784852761303004  0.7718276643740685  0.4921159175788785   T   T   T
  0.9312896078283340  0.5481996849123446  0.5084707081209103   T   T   T
  0.8332030395956511  0.3300668028479795  0.5273038734811438   T   T   T
  0.9893725265949727  0.1042987041824861  0.5410836614099611   T   T   T
  0.8910129759572956  0.8811641586423722  0.5689114204914771   T   T   T
  0.7933545133225756  0.6671852664899786  0.5848243896725037   T   T   T
  0.9433535495120937  0.4528970007018585  0.6011027676077021   T   T   T
  0.8444007421869504  0.2379454107279002  0.6190767706457422   T   T   T
  0.7470556537846879  0.0253966583667734  0.6309544243752767   T   T   T
  0.4690859299362296  0.6021843025337231  0.6522242516152694   T   T   T
  0.4553868322846771  0.6312905876218114  0.6930209356910456   T   T   T
  0.1377939732683230  0.3793269131315985  0.6713406302676678   T   T   T
  0.1327330622710985  0.4017905221391964  0.7130717737384030   T   T   T
  0.7052405964933598  0.4779229462769002  0.6779287743880514   T   T   T
  0.7883114363953779  0.4897210386956777  0.6856646929032707   T   T   T
 
  0.00000000E+00  0.00000000E+00  0.00000000E+00
  0.00000000E+00  0.00000000E+00  0.00000000E+00
  0.00000000E+00  0.00000000E+00  0.00000000E+00
  0.00000000E+00  0.00000000E+00  0.00000000E+00
  0.00000000E+00  0.00000000E+00  0.00000000E+00
  0.00000000E+00  0.00000000E+00  0.00000000E+00
  0.00000000E+00  0.00000000E+00  0.00000000E+00
  0.00000000E+00  0.00000000E+00  0.00000000E+00
  0.00000000E+00  0.00000000E+00  0.00000000E+00
  0.00000000E+00  0.00000000E+00  0.00000000E+00
  0.00000000E+00  0.00000000E+00  0.00000000E+00
  0.00000000E+00  0.00000000E+00  0.00000000E+00
  0.00000000E+00  0.00000000E+00  0.00000000E+00
  0.00000000E+00  0.00000000E+00  0.00000000E+00
  0.00000000E+00  0.00000000E+00  0.00000000E+00
  0.00000000E+00  0.00000000E+00  0.00000000E+00
  0.00000000E+00  0.00000000E+00  0.00000000E+00
  0.00000000E+00  0.00000000E+00  0.00000000E+00
  0.00000000E+00  0.00000000E+00  0.00000000E+00
  0.00000000E+00  0.00000000E+00  0.00000000E+00
  0.00000000E+00  0.00000000E+00  0.00000000E+00
  0.00000000E+00  0.00000000E+00  0.00000000E+00
  0.00000000E+00  0.00000000E+00  0.00000000E+00
  0.00000000E+00  0.00000000E+00  0.00000000E+00
  0.00000000E+00  0.00000000E+00  0.00000000E+00
  0.00000000E+00  0.00000000E+00  0.00000000E+00
  0.00000000E+00  0.00000000E+00  0.00000000E+00
  0.00000000E+00  0.00000000E+00  0.00000000E+00
  0.00000000E+00  0.00000000E+00  0.00000000E+00
  0.00000000E+00  0.00000000E+00  0.00000000E+00
  0.00000000E+00  0.00000000E+00  0.00000000E+00
  0.00000000E+00  0.00000000E+00  0.00000000E+00
  0.00000000E+00  0.00000000E+00  0.00000000E+00
  0.00000000E+00  0.00000000E+00  0.00000000E+00
  0.00000000E+00  0.00000000E+00  0.00000000E+00
  0.00000000E+00  0.00000000E+00  0.00000000E+00
  0.00000000E+00  0.00000000E+00  0.00000000E+00
  0.00000000E+00  0.00000000E+00  0.00000000E+00
  0.00000000E+00  0.00000000E+00  0.00000000E+00
  0.00000000E+00  0.00000000E+00  0.00000000E+00
  0.00000000E+00  0.00000000E+00  0.00000000E+00
  0.00000000E+00  0.00000000E+00  0.00000000E+00
  0.00000000E+00  0.00000000E+00  0.00000000E+00
  0.00000000E+00  0.00000000E+00  0.00000000E+00
  0.00000000E+00  0.00000000E+00  0.00000000E+00
  0.00000000E+00  0.00000000E+00  0.00000000E+00
  0.00000000E+00  0.00000000E+00  0.00000000E+00
  0.00000000E+00  0.00000000E+00  0.00000000E+00
  0.00000000E+00  0.00000000E+00  0.00000000E+00
  0.00000000E+00  0.00000000E+00  0.00000000E+00
  0.00000000E+00  0.00000000E+00  0.00000000E+00
  0.00000000E+00  0.00000000E+00  0.00000000E+00
  0.00000000E+00  0.00000000E+00  0.00000000E+00
  0.00000000E+00  0.00000000E+00  0.00000000E+00
  0.00000000E+00  0.00000000E+00  0.00000000E+00
  0.00000000E+00  0.00000000E+00  0.00000000E+00
  0.00000000E+00  0.00000000E+00  0.00000000E+00
  0.00000000E+00  0.00000000E+00  0.00000000E+00
  0.00000000E+00  0.00000000E+00  0.00000000E+00
  0.00000000E+00  0.00000000E+00  0.00000000E+00
  0.00000000E+00  0.00000000E+00  0.00000000E+00
  0.00000000E+00  0.00000000E+00  0.00000000E+00
