Pt  C  O  C  O  H                       
    1.000000000000000     
    11.2213408561008308    0.0000000000000000    0.0000000000000000
     1.4026676070126025   10.7740943252779040    0.0000000000000000
     0.0000000000000000    0.0000000000000000   27.7475611781839042
   Pt   C    O    C    O    H 
    56     1     1     1     2     1
Selective dynamics
Direct
  0.0169491525423737  0.8644067796610173  0.3976208246282127   F   F   F
  0.1694915254237301  0.6440677966101660  0.4162352201503552   F   F   F
  0.0720338983050866  0.4237288135593218  0.4348496156724977   F   F   F
  0.2245762711864430  0.2033898305084776  0.4534640111946402   F   F   F
  0.1270565057110620  0.9884320062104792  0.4640183602170449   T   T   T
  0.0285577636185696  0.7690103472110787  0.4921935824556296   T   T   T
  0.1817833418726773  0.5459068478783078  0.5091877446359516   T   T   T
  0.0831896093199784  0.3271957933115563  0.5294331096862680   T   T   T
  0.2359594202624728  0.1054806117326277  0.5417355132791783   T   T   T
  0.1404835870217069  0.8791601872895028  0.5677614834884412   T   T   T
  0.0427519397967400  0.6635399456599901  0.5852001641515771   T   T   T
  0.1941362843250136  0.4541966212700245  0.6027027211552685   T   T   T
  0.0957226825760255  0.2447094575188336  0.6277156606019284   T   T   T
  0.9970066580116247  0.0268860543830850  0.6299499042788430   T   T   T
  0.2669491525423737  0.8644067796610173  0.3976208246282127   F   F   F
  0.4194915254237301  0.6440677966101660  0.4162352201503552   F   F   F
  0.3220338983050866  0.4237288135593218  0.4348496156724977   F   F   F
  0.4745762711864430  0.2033898305084776  0.4534640111946402   F   F   F
  0.3771528617293218  0.9895935652304284  0.4649580591550198   T   T   T
  0.2796653415569353  0.7693755492942019  0.4925194169780183   T   T   T
  0.4310176853395163  0.5454451689655504  0.5107478891176938   T   T   T
  0.3346865966076791  0.3266233103133040  0.5284723022473201   T   T   T
  0.4868448074328525  0.1033353400259979  0.5448606964417767   T   T   T
  0.3894813423876159  0.8827728210848550  0.5690411434895009   T   T   T
  0.2927071702279044  0.6658249345311726  0.5858116018250208   T   T   T
  0.4427066267014995  0.4573391017432916  0.6080337901752390   T   T   T
  0.3436451684685673  0.2389611446974870  0.6244219312074742   T   T   T
  0.2407728985085098  0.0281770174558063  0.6308518109042899   T   T   T
  0.5169491525423737  0.8644067796610173  0.3976208246282127   F   F   F
  0.6694915254237301  0.6440677966101660  0.4162352201503552   F   F   F
  0.5720338983050866  0.4237288135593218  0.4348496156724977   F   F   F
  0.7245762711864430  0.2033898305084776  0.4534640111946402   F   F   F
  0.6252912499013622  0.9899218981775029  0.4649850322824350   T   T   T
  0.5282363771550300  0.7706073843319438  0.4922983506030443   T   T   T
  0.6809795087996660  0.5469989830131466  0.5089822550467936   T   T   T
  0.5827243555838761  0.3277750123646714  0.5283550765832604   T   T   T
  0.7375000155240554  0.1061007567978814  0.5415291222128719   T   T   T
  0.6405835845515444  0.8826719578425309  0.5682251512333369   T   T   T
  0.5408956486909519  0.6661860325493303  0.5849152813655478   T   T   T
  0.6920647774041759  0.4550215651300108  0.6026650794457562   T   T   T
  0.5974007216851241  0.2392809856551494  0.6242132119962612   T   T   T
  0.5017204167057653  0.0183458417842240  0.6350280454816833   T   T   T
  0.7669491525423737  0.8644067796610173  0.3976208246282127   F   F   F
  0.9194915254237301  0.6440677966101660  0.4162352201503552   F   F   F
  0.8220338983050866  0.4237288135593218  0.4348496156724977   F   F   F
  0.9745762711864430  0.2033898305084776  0.4534640111946402   F   F   F
  0.8758958131433853  0.9883188457484015  0.4642297568855223   T   T   T
  0.7781279201861422  0.7699908013639550  0.4923437804037785   T   T   T
  0.9316469677136596  0.5439120068314011  0.5110422677205264   T   T   T
  0.8338939830933328  0.3278173670982139  0.5292882800835513   T   T   T
  0.9871278863394606  0.1018195662475455  0.5406091779251232   T   T   T
  0.8910529261256745  0.8786543487135794  0.5680854211949373   T   T   T
  0.7909456888876747  0.6649681017267961  0.5850739259533578   T   T   T
  0.9423481610923695  0.4592057952394965  0.6091333393504030   T   T   T
  0.8430742963472755  0.2453852168927937  0.6272182732949660   T   T   T
  0.7544357908902487  0.0277031854370903  0.6307464475584474   T   T   T
  0.4578249222928264  0.3368654813749171  0.6662409228378805   T   T   T
  0.4559745682408921  0.3526769396674287  0.7088913701698002   T   T   T
  0.9573898842171440  0.3420274864058093  0.6689129415247689   T   T   T
  0.9544566417071625  0.3612702719370164  0.7113641163881522   T   T   T
  0.5038512687051041  0.9523168476734163  0.7008839332544546   T   T   T
  0.5862081744610481  0.9412554257260327  0.7133689211240642   T   T   T
 
  0.00000000E+00  0.00000000E+00  0.00000000E+00
  0.00000000E+00  0.00000000E+00  0.00000000E+00
  0.00000000E+00  0.00000000E+00  0.00000000E+00
  0.00000000E+00  0.00000000E+00  0.00000000E+00
  0.00000000E+00  0.00000000E+00  0.00000000E+00
  0.00000000E+00  0.00000000E+00  0.00000000E+00
  0.00000000E+00  0.00000000E+00  0.00000000E+00
  0.00000000E+00  0.00000000E+00  0.00000000E+00
  0.00000000E+00  0.00000000E+00  0.00000000E+00
  0.00000000E+00  0.00000000E+00  0.00000000E+00
  0.00000000E+00  0.00000000E+00  0.00000000E+00
  0.00000000E+00  0.00000000E+00  0.00000000E+00
  0.00000000E+00  0.00000000E+00  0.00000000E+00
  0.00000000E+00  0.00000000E+00  0.00000000E+00
  0.00000000E+00  0.00000000E+00  0.00000000E+00
  0.00000000E+00  0.00000000E+00  0.00000000E+00
  0.00000000E+00  0.00000000E+00  0.00000000E+00
  0.00000000E+00  0.00000000E+00  0.00000000E+00
  0.00000000E+00  0.00000000E+00  0.00000000E+00
  0.00000000E+00  0.00000000E+00  0.00000000E+00
  0.00000000E+00  0.00000000E+00  0.00000000E+00
  0.00000000E+00  0.00000000E+00  0.00000000E+00
  0.00000000E+00  0.00000000E+00  0.00000000E+00
  0.00000000E+00  0.00000000E+00  0.00000000E+00
  0.00000000E+00  0.00000000E+00  0.00000000E+00
  0.00000000E+00  0.00000000E+00  0.00000000E+00
  0.00000000E+00  0.00000000E+00  0.00000000E+00
  0.00000000E+00  0.00000000E+00  0.00000000E+00
  0.00000000E+00  0.00000000E+00  0.00000000E+00
  0.00000000E+00  0.00000000E+00  0.00000000E+00
  0.00000000E+00  0.00000000E+00  0.00000000E+00
  0.00000000E+00  0.00000000E+00  0.00000000E+00
  0.00000000E+00  0.00000000E+00  0.00000000E+00
  0.00000000E+00  0.00000000E+00  0.00000000E+00
  0.00000000E+00  0.00000000E+00  0.00000000E+00
  0.00000000E+00  0.00000000E+00  0.00000000E+00
  0.00000000E+00  0.00000000E+00  0.00000000E+00
  0.00000000E+00  0.00000000E+00  0.00000000E+00
  0.00000000E+00  0.00000000E+00  0.00000000E+00
  0.00000000E+00  0.00000000E+00  0.00000000E+00
  0.00000000E+00  0.00000000E+00  0.00000000E+00
  0.00000000E+00  0.00000000E+00  0.00000000E+00
  0.00000000E+00  0.00000000E+00  0.00000000E+00
  0.00000000E+00  0.00000000E+00  0.00000000E+00
  0.00000000E+00  0.00000000E+00  0.00000000E+00
  0.00000000E+00  0.00000000E+00  0.00000000E+00
  0.00000000E+00  0.00000000E+00  0.00000000E+00
  0.00000000E+00  0.00000000E+00  0.00000000E+00
  0.00000000E+00  0.00000000E+00  0.00000000E+00
  0.00000000E+00  0.00000000E+00  0.00000000E+00
  0.00000000E+00  0.00000000E+00  0.00000000E+00
  0.00000000E+00  0.00000000E+00  0.00000000E+00
  0.00000000E+00  0.00000000E+00  0.00000000E+00
  0.00000000E+00  0.00000000E+00  0.00000000E+00
  0.00000000E+00  0.00000000E+00  0.00000000E+00
  0.00000000E+00  0.00000000E+00  0.00000000E+00
  0.00000000E+00  0.00000000E+00  0.00000000E+00
  0.00000000E+00  0.00000000E+00  0.00000000E+00
  0.00000000E+00  0.00000000E+00  0.00000000E+00
  0.00000000E+00  0.00000000E+00  0.00000000E+00
  0.00000000E+00  0.00000000E+00  0.00000000E+00
  0.00000000E+00  0.00000000E+00  0.00000000E+00
