Pt  C  O  C  O  H                       
    1.000000000000000     
    11.2213408561008308    0.0000000000000000    0.0000000000000000
     1.4026676070126025   10.7740943252779040    0.0000000000000000
     0.0000000000000000    0.0000000000000000   27.7475611781839042
   Pt   C    O    C    O    H 
    56     1     1     1     2     1
Selective dynamics
Direct
  0.0169491525423737  0.8644067796610173  0.3976208246282127   F   F   F
  0.1694915254237301  0.6440677966101660  0.4162352201503552   F   F   F
  0.0720338983050866  0.4237288135593218  0.4348496156724977   F   F   F
  0.2245762711864430  0.2033898305084776  0.4534640111946402   F   F   F
  0.1265130118931186  0.9869553321480654  0.4652965901009256   T   T   T
  0.0281275985738674  0.7669529293865431  0.4932194267278078   T   T   T
  0.1828383234765331  0.5498718168667592  0.5122981161130140   T   T   T
  0.0841395238627596  0.3230326805101911  0.5271255269744802   T   T   T
  0.2344418716858943  0.0957108131577365  0.5420696397060188   T   T   T
  0.1392647687383952  0.8713256720822282  0.5709325690398969   T   T   T
  0.0402000277753369  0.6545999545023206  0.5878500174324169   T   T   T
  0.1903587246265878  0.4410133819523239  0.6048103815087155   T   T   T
  0.0999373538390088  0.2282579953007081  0.6189213924664106   T   T   T
  0.0024401573254648  0.0161144007883268  0.6348331194978333   T   T   T
  0.2669491525423737  0.8644067796610173  0.3976208246282127   F   F   F
  0.4194915254237301  0.6440677966101660  0.4162352201503552   F   F   F
  0.3220338983050866  0.4237288135593218  0.4348496156724977   F   F   F
  0.4745762711864430  0.2033898305084776  0.4534640111946402   F   F   F
  0.3765512493579706  0.9889407901334450  0.4650665138453260   T   T   T
  0.2779013969590275  0.7699666783277610  0.4922261041334088   T   T   T
  0.4309791851129865  0.5484343792043832  0.5088050794736726   T   T   T
  0.3318412585779348  0.3263825643771373  0.5261061588587038   T   T   T
  0.4901042671346170  0.0967537535999207  0.5422813135505427   T   T   T
  0.3896298686823971  0.8791111579732178  0.5648019089969970   T   T   T
  0.2900175265270920  0.6520389928255774  0.5885690162478812   T   T   T
  0.4455769156312925  0.4355096597691355  0.6004103734253692   T   T   T
  0.3451029257058917  0.2275962052513905  0.6168608400949255   T   T   T
  0.2503963990214898  0.0107531993197613  0.6362883640467513   T   T   T
  0.5169491525423737  0.8644067796610173  0.3976208246282127   F   F   F
  0.6694915254237301  0.6440677966101660  0.4162352201503552   F   F   F
  0.5720338983050866  0.4237288135593218  0.4348496156724977   F   F   F
  0.7245762711864430  0.2033898305084776  0.4534640111946402   F   F   F
  0.6262622789362277  0.9867905273314925  0.4654452449803650   T   T   T
  0.5291469871672059  0.7688843249539918  0.4924573908512643   T   T   T
  0.6790402134765372  0.5467987943476372  0.5122216950160489   T   T   T
  0.5857422524225576  0.3233487724838235  0.5265747954335882   T   T   T
  0.7394816191051958  0.0944524956581884  0.5418929274113600   T   T   T
  0.6414269209424511  0.8707436783511258  0.5711351828319202   T   T   T
  0.5444057352027701  0.6519018250050563  0.5886894562904613   T   T   T
  0.6977740935181722  0.4383032288420740  0.6047959909146620   T   T   T
  0.5922784382447305  0.2274487070944522  0.6187715966032372   T   T   T
  0.4964923654017051  0.0106297000303329  0.6364346883322654   T   T   T
  0.7669491525423737  0.8644067796610173  0.3976208246282127   F   F   F
  0.9194915254237301  0.6440677966101660  0.4162352201503552   F   F   F
  0.8220338983050866  0.4237288135593218  0.4348496156724977   F   F   F
  0.9745762711864430  0.2033898305084776  0.4534640111946402   F   F   F
  0.8764517197488030  0.9863748246473116  0.4650331206994364   T   T   T
  0.7786006097238229  0.7675492082487994  0.4930077493518560   T   T   T
  0.9318252290418174  0.5427443205015439  0.5101584620747974   T   T   T
  0.8357040172007659  0.3219281164574622  0.5292760525208714   T   T   T
  0.9862766955500509  0.0928477659216821  0.5419282058026154   T   T   T
  0.8906248730008373  0.8705153989167886  0.5699646228938832   T   T   T
  0.7945052720814683  0.6535143857210598  0.5870554359805678   T   T   T
  0.9437935111028212  0.4400219411068172  0.6051466544864048   T   T   T
  0.8462942993477593  0.2308931374780313  0.6265225599623339   T   T   T
  0.7432793036728813  0.0157749670324881  0.6344860559976623   T   T   T
  0.3775265211807618  0.9726084125007988  0.6869752595608249   T   T   T
  0.3822047357672520  0.9423456575998765  0.7279667758356869   T   T   T
  0.8624367493530125  0.0970286772041078  0.6806325446798808   T   T   T
  0.8611587153903811  0.0975505717307514  0.7237625267876268   T   T   T
  0.4117405328896912  0.6937201765327499  0.6448197978828338   T   T   T
  0.4208557763815398  0.6212617870416891  0.6664589520295204   T   T   T
 
  0.00000000E+00  0.00000000E+00  0.00000000E+00
  0.00000000E+00  0.00000000E+00  0.00000000E+00
  0.00000000E+00  0.00000000E+00  0.00000000E+00
  0.00000000E+00  0.00000000E+00  0.00000000E+00
  0.00000000E+00  0.00000000E+00  0.00000000E+00
  0.00000000E+00  0.00000000E+00  0.00000000E+00
  0.00000000E+00  0.00000000E+00  0.00000000E+00
  0.00000000E+00  0.00000000E+00  0.00000000E+00
  0.00000000E+00  0.00000000E+00  0.00000000E+00
  0.00000000E+00  0.00000000E+00  0.00000000E+00
  0.00000000E+00  0.00000000E+00  0.00000000E+00
  0.00000000E+00  0.00000000E+00  0.00000000E+00
  0.00000000E+00  0.00000000E+00  0.00000000E+00
  0.00000000E+00  0.00000000E+00  0.00000000E+00
  0.00000000E+00  0.00000000E+00  0.00000000E+00
  0.00000000E+00  0.00000000E+00  0.00000000E+00
  0.00000000E+00  0.00000000E+00  0.00000000E+00
  0.00000000E+00  0.00000000E+00  0.00000000E+00
  0.00000000E+00  0.00000000E+00  0.00000000E+00
  0.00000000E+00  0.00000000E+00  0.00000000E+00
  0.00000000E+00  0.00000000E+00  0.00000000E+00
  0.00000000E+00  0.00000000E+00  0.00000000E+00
  0.00000000E+00  0.00000000E+00  0.00000000E+00
  0.00000000E+00  0.00000000E+00  0.00000000E+00
  0.00000000E+00  0.00000000E+00  0.00000000E+00
  0.00000000E+00  0.00000000E+00  0.00000000E+00
  0.00000000E+00  0.00000000E+00  0.00000000E+00
  0.00000000E+00  0.00000000E+00  0.00000000E+00
  0.00000000E+00  0.00000000E+00  0.00000000E+00
  0.00000000E+00  0.00000000E+00  0.00000000E+00
  0.00000000E+00  0.00000000E+00  0.00000000E+00
  0.00000000E+00  0.00000000E+00  0.00000000E+00
  0.00000000E+00  0.00000000E+00  0.00000000E+00
  0.00000000E+00  0.00000000E+00  0.00000000E+00
  0.00000000E+00  0.00000000E+00  0.00000000E+00
  0.00000000E+00  0.00000000E+00  0.00000000E+00
  0.00000000E+00  0.00000000E+00  0.00000000E+00
  0.00000000E+00  0.00000000E+00  0.00000000E+00
  0.00000000E+00  0.00000000E+00  0.00000000E+00
  0.00000000E+00  0.00000000E+00  0.00000000E+00
  0.00000000E+00  0.00000000E+00  0.00000000E+00
  0.00000000E+00  0.00000000E+00  0.00000000E+00
  0.00000000E+00  0.00000000E+00  0.00000000E+00
  0.00000000E+00  0.00000000E+00  0.00000000E+00
  0.00000000E+00  0.00000000E+00  0.00000000E+00
  0.00000000E+00  0.00000000E+00  0.00000000E+00
  0.00000000E+00  0.00000000E+00  0.00000000E+00
  0.00000000E+00  0.00000000E+00  0.00000000E+00
  0.00000000E+00  0.00000000E+00  0.00000000E+00
  0.00000000E+00  0.00000000E+00  0.00000000E+00
  0.00000000E+00  0.00000000E+00  0.00000000E+00
  0.00000000E+00  0.00000000E+00  0.00000000E+00
  0.00000000E+00  0.00000000E+00  0.00000000E+00
  0.00000000E+00  0.00000000E+00  0.00000000E+00
  0.00000000E+00  0.00000000E+00  0.00000000E+00
  0.00000000E+00  0.00000000E+00  0.00000000E+00
  0.00000000E+00  0.00000000E+00  0.00000000E+00
  0.00000000E+00  0.00000000E+00  0.00000000E+00
  0.00000000E+00  0.00000000E+00  0.00000000E+00
  0.00000000E+00  0.00000000E+00  0.00000000E+00
  0.00000000E+00  0.00000000E+00  0.00000000E+00
  0.00000000E+00  0.00000000E+00  0.00000000E+00
