Pt  C  O  C  O  H                       
    1.000000000000000     
    11.2213408561008308    0.0000000000000000    0.0000000000000000
     1.4026676070126025   10.7740943252779040    0.0000000000000000
     0.0000000000000000    0.0000000000000000   27.7475611781839042
   Pt   C    O    C    O    H 
    56     1     1     1     2     1
Selective dynamics
Direct
  0.0169491525423737  0.8644067796610173  0.3976208246282127   F   F   F
  0.1694915254237301  0.6440677966101660  0.4162352201503552   F   F   F
  0.0720338983050866  0.4237288135593218  0.4348496156724977   F   F   F
  0.2245762711864430  0.2033898305084776  0.4534640111946402   F   F   F
  0.1258383174644868  0.9892840115868645  0.4645630055459271   T   T   T
  0.0280088043250028  0.7703187415638724  0.4924553916683923   T   T   T
  0.1803962733362585  0.5467682471842260  0.5087368678355725   T   T   T
  0.0839159429064785  0.3276264726787515  0.5277539625931275   T   T   T
  0.2384556209938790  0.1058596712325256  0.5409562700085799   T   T   T
  0.1361478306143278  0.8831608643528884  0.5685158217915598   T   T   T
  0.0380804568332937  0.6672249148388659  0.5854537316158421   T   T   T
  0.1890429919609721  0.4572087567712114  0.6034987566256496   T   T   T
  0.0981730931281339  0.2462264683554225  0.6212178653795258   T   T   T
  0.0001145746557780  0.0301319214492538  0.6330493921464266   T   T   T
  0.2669491525423737  0.8644067796610173  0.3976208246282127   F   F   F
  0.4194915254237301  0.6440677966101660  0.4162352201503552   F   F   F
  0.3220338983050866  0.4237288135593218  0.4348496156724977   F   F   F
  0.4745762711864430  0.2033898305084776  0.4534640111946402   F   F   F
  0.3763281093854666  0.9896001285373356  0.4641530290062948   T   T   T
  0.2781541279031474  0.7717677886469895  0.4914891552445393   T   T   T
  0.4321949254453785  0.5462418009693051  0.5099277534223042   T   T   T
  0.3347350110245996  0.3311175648683451  0.5313482787885623   T   T   T
  0.4868535224478543  0.1053710625095914  0.5407843113385383   T   T   T
  0.3884973508622602  0.8817806248010467  0.5674982540657282   T   T   T
  0.2861815732388551  0.6690434164571741  0.5824874457968487   T   T   T
  0.4393578087604888  0.4653285548879507  0.6066090837604489   T   T   T
  0.3400336588498870  0.2466766901425625  0.6292363460265138   T   T   T
  0.2450039987718707  0.0285193854639657  0.6301382509126887   T   T   T
  0.5169491525423737  0.8644067796610173  0.3976208246282127   F   F   F
  0.6694915254237301  0.6440677966101660  0.4162352201503552   F   F   F
  0.5720338983050866  0.4237288135593218  0.4348496156724977   F   F   F
  0.7245762711864430  0.2033898305084776  0.4534640111946402   F   F   F
  0.6269374488671670  0.9888455949703019  0.4642909163830767   T   T   T
  0.5277135553312178  0.7708206845845603  0.4915832069518926   T   T   T
  0.6826234530147515  0.5442752970599991  0.5091395914254582   T   T   T
  0.5847840554473701  0.3268590049714609  0.5305582488252064   T   T   T
  0.7361568457860335  0.1033145916073544  0.5416617201262007   T   T   T
  0.6410411365643474  0.8814128451228097  0.5686139481313429   T   T   T
  0.5444725635782814  0.6683796184685519  0.5831371257525743   T   T   T
  0.6952649020968976  0.4524658951379612  0.6032414029408661   T   T   T
  0.5873388831731566  0.2491112822721512  0.6292730420776841   T   T   T
  0.4936500537230137  0.0254043159054743  0.6291169224724347   T   T   T
  0.7669491525423737  0.8644067796610173  0.3976208246282127   F   F   F
  0.9194915254237301  0.6440677966101660  0.4162352201503552   F   F   F
  0.8220338983050866  0.4237288135593218  0.4348496156724977   F   F   F
  0.9745762711864430  0.2033898305084776  0.4534640111946402   F   F   F
  0.8763969974656355  0.9884628981057733  0.4647154921411411   T   T   T
  0.7780031219593109  0.7697409759039440  0.4925161989443578   T   T   T
  0.9306952786413152  0.5452463205517258  0.5094998246977740   T   T   T
  0.8344860776419669  0.3246299280203281  0.5295453790872011   T   T   T
  0.9868260603178649  0.1036323214523730  0.5415227984982945   T   T   T
  0.8883883820933877  0.8823351188653874  0.5682514571930505   T   T   T
  0.7925701359887400  0.6659191407149089  0.5856963185587949   T   T   T
  0.9417567780667312  0.4529200894934367  0.6043428358342956   T   T   T
  0.8424103735926117  0.2467733783978530  0.6280940042059620   T   T   T
  0.7409637515747141  0.0298491915974378  0.6322864669328514   T   T   T
  0.4648287422486471  0.2398282962703278  0.6817174329546430   T   T   T
  0.4641773360095031  0.2442861553473667  0.7243610867572118   T   T   T
  0.8612351076764077  0.1070401325707752  0.6793994452570996   T   T   T
  0.8608674487719525  0.1005659001133837  0.7224778917568708   T   T   T
  0.4386560885844096  0.5299665957636908  0.6736932545957116   T   T   T
  0.5206427018201614  0.5087849022792466  0.6860209687831507   T   T   T
 
  0.00000000E+00  0.00000000E+00  0.00000000E+00
  0.00000000E+00  0.00000000E+00  0.00000000E+00
  0.00000000E+00  0.00000000E+00  0.00000000E+00
  0.00000000E+00  0.00000000E+00  0.00000000E+00
  0.00000000E+00  0.00000000E+00  0.00000000E+00
  0.00000000E+00  0.00000000E+00  0.00000000E+00
  0.00000000E+00  0.00000000E+00  0.00000000E+00
  0.00000000E+00  0.00000000E+00  0.00000000E+00
  0.00000000E+00  0.00000000E+00  0.00000000E+00
  0.00000000E+00  0.00000000E+00  0.00000000E+00
  0.00000000E+00  0.00000000E+00  0.00000000E+00
  0.00000000E+00  0.00000000E+00  0.00000000E+00
  0.00000000E+00  0.00000000E+00  0.00000000E+00
  0.00000000E+00  0.00000000E+00  0.00000000E+00
  0.00000000E+00  0.00000000E+00  0.00000000E+00
  0.00000000E+00  0.00000000E+00  0.00000000E+00
  0.00000000E+00  0.00000000E+00  0.00000000E+00
  0.00000000E+00  0.00000000E+00  0.00000000E+00
  0.00000000E+00  0.00000000E+00  0.00000000E+00
  0.00000000E+00  0.00000000E+00  0.00000000E+00
  0.00000000E+00  0.00000000E+00  0.00000000E+00
  0.00000000E+00  0.00000000E+00  0.00000000E+00
  0.00000000E+00  0.00000000E+00  0.00000000E+00
  0.00000000E+00  0.00000000E+00  0.00000000E+00
  0.00000000E+00  0.00000000E+00  0.00000000E+00
  0.00000000E+00  0.00000000E+00  0.00000000E+00
  0.00000000E+00  0.00000000E+00  0.00000000E+00
  0.00000000E+00  0.00000000E+00  0.00000000E+00
  0.00000000E+00  0.00000000E+00  0.00000000E+00
  0.00000000E+00  0.00000000E+00  0.00000000E+00
  0.00000000E+00  0.00000000E+00  0.00000000E+00
  0.00000000E+00  0.00000000E+00  0.00000000E+00
  0.00000000E+00  0.00000000E+00  0.00000000E+00
  0.00000000E+00  0.00000000E+00  0.00000000E+00
  0.00000000E+00  0.00000000E+00  0.00000000E+00
  0.00000000E+00  0.00000000E+00  0.00000000E+00
  0.00000000E+00  0.00000000E+00  0.00000000E+00
  0.00000000E+00  0.00000000E+00  0.00000000E+00
  0.00000000E+00  0.00000000E+00  0.00000000E+00
  0.00000000E+00  0.00000000E+00  0.00000000E+00
  0.00000000E+00  0.00000000E+00  0.00000000E+00
  0.00000000E+00  0.00000000E+00  0.00000000E+00
  0.00000000E+00  0.00000000E+00  0.00000000E+00
  0.00000000E+00  0.00000000E+00  0.00000000E+00
  0.00000000E+00  0.00000000E+00  0.00000000E+00
  0.00000000E+00  0.00000000E+00  0.00000000E+00
  0.00000000E+00  0.00000000E+00  0.00000000E+00
  0.00000000E+00  0.00000000E+00  0.00000000E+00
  0.00000000E+00  0.00000000E+00  0.00000000E+00
  0.00000000E+00  0.00000000E+00  0.00000000E+00
  0.00000000E+00  0.00000000E+00  0.00000000E+00
  0.00000000E+00  0.00000000E+00  0.00000000E+00
  0.00000000E+00  0.00000000E+00  0.00000000E+00
  0.00000000E+00  0.00000000E+00  0.00000000E+00
  0.00000000E+00  0.00000000E+00  0.00000000E+00
  0.00000000E+00  0.00000000E+00  0.00000000E+00
  0.00000000E+00  0.00000000E+00  0.00000000E+00
  0.00000000E+00  0.00000000E+00  0.00000000E+00
  0.00000000E+00  0.00000000E+00  0.00000000E+00
  0.00000000E+00  0.00000000E+00  0.00000000E+00
  0.00000000E+00  0.00000000E+00  0.00000000E+00
  0.00000000E+00  0.00000000E+00  0.00000000E+00
