Pt  C  O  C  O  H                       
    1.000000000000000     
    11.2213408561008308    0.0000000000000000    0.0000000000000000
     1.4026676070126025   10.7740943252779040    0.0000000000000000
     0.0000000000000000    0.0000000000000000   27.7475611781839042
   Pt   C    O    C    O    H 
    56     1     1     1     2     1
Selective dynamics
Direct
  0.0169491525423737  0.8644067796610173  0.3976208246282127   F   F   F
  0.1694915254237301  0.6440677966101660  0.4162352201503552   F   F   F
  0.0720338983050866  0.4237288135593218  0.4348496156724977   F   F   F
  0.2245762711864430  0.2033898305084776  0.4534640111946402   F   F   F
  0.1259429811047668  0.9886983615707998  0.4647763593899379   T   T   T
  0.0274094700710959  0.7711593058545022  0.4922492705333632   T   T   T
  0.1795022615138640  0.5479108217656277  0.5089351996783550   T   T   T
  0.0844633181299875  0.3286641446666621  0.5274794774935317   T   T   T
  0.2377356100857288  0.1052176215204695  0.5406201038129701   T   T   T
  0.1358688309626662  0.8833419976379293  0.5688672116197493   T   T   T
  0.0397446022359962  0.6664914702249805  0.5848039436404036   T   T   T
  0.1895679984576255  0.4577413071106216  0.6050169314849659   T   T   T
  0.0995848528387978  0.2452485200089770  0.6204968528727054   T   T   T
  0.0013624010047666  0.0293896647322231  0.6331216336057016   T   T   T
  0.2669491525423737  0.8644067796610173  0.3976208246282127   F   F   F
  0.4194915254237301  0.6440677966101660  0.4162352201503552   F   F   F
  0.3220338983050866  0.4237288135593218  0.4348496156724977   F   F   F
  0.4745762711864430  0.2033898305084776  0.4534640111946402   F   F   F
  0.3765968011045646  0.9883007299463262  0.4646742919746988   T   T   T
  0.2779011840812367  0.7712776821693359  0.4919173430133890   T   T   T
  0.4312018946493046  0.5499498416675349  0.5101506493510425   T   T   T
  0.3346946846905240  0.3343725395142140  0.5291707030184001   T   T   T
  0.4862793970534040  0.1045618002456547  0.5407104956940992   T   T   T
  0.3873379154978308  0.8825097246296473  0.5678603169739865   T   T   T
  0.2838988061755108  0.6688293405926350  0.5838141236647281   T   T   T
  0.4380732407104752  0.4604302727525303  0.6105634246620156   T   T   T
  0.3431967617423345  0.2464399530337583  0.6211285212954362   T   T   T
  0.2468457472720058  0.0297012081594277  0.6308912618977511   T   T   T
  0.5169491525423737  0.8644067796610173  0.3976208246282127   F   F   F
  0.6694915254237301  0.6440677966101660  0.4162352201503552   F   F   F
  0.5720338983050866  0.4237288135593218  0.4348496156724977   F   F   F
  0.7245762711864430  0.2033898305084776  0.4534640111946402   F   F   F
  0.6268248301261495  0.9873102937877407  0.4646161616472816   T   T   T
  0.5273264215953880  0.7687017882481576  0.4934846510645669   T   T   T
  0.6813646040290254  0.5501250142123344  0.5116703615958432   T   T   T
  0.5817936803957030  0.3319225162461927  0.5280332903812485   T   T   T
  0.7354303314481913  0.1043172402306636  0.5413537893029836   T   T   T
  0.6380456592118802  0.8818511978356963  0.5685065059735513   T   T   T
  0.5374687526312688  0.6705594396133066  0.5908229681334387   T   T   T
  0.6964590753701059  0.4492692365678385  0.6033857714042872   T   T   T
  0.5873878397076533  0.2449208039718878  0.6203459190453621   T   T   T
  0.4926427165673152  0.0293753987428060  0.6307981678987853   T   T   T
  0.7669491525423737  0.8644067796610173  0.3976208246282127   F   F   F
  0.9194915254237301  0.6440677966101660  0.4162352201503552   F   F   F
  0.8220338983050866  0.4237288135593218  0.4348496156724977   F   F   F
  0.9745762711864430  0.2033898305084776  0.4534640111946402   F   F   F
  0.8760568119395783  0.9883925240705599  0.4646179245008905   T   T   T
  0.7773468695040101  0.7688037923858760  0.4936971909326862   T   T   T
  0.9294599225735032  0.5477242468467153  0.5103495816970470   T   T   T
  0.8331701422121086  0.3273150070037616  0.5287728087064986   T   T   T
  0.9865667318485908  0.1038807043688018  0.5415280536096103   T   T   T
  0.8878755782401394  0.8847736465493207  0.5676609037129705   T   T   T
  0.7918338895640176  0.6700708072095530  0.5908208082158894   T   T   T
  0.9437262379704715  0.4511016423687674  0.6037449246877951   T   T   T
  0.8441694505054628  0.2438093004152221  0.6263374519934629   T   T   T
  0.7389066638409649  0.0283753413984183  0.6327797181252574   T   T   T
  0.4927685898274214  0.5930064842925218  0.6529909085777210   T   T   T
  0.4921723448439138  0.6160294119512573  0.6946229397331646   T   T   T
  0.8605553192922608  0.1066700835662415  0.6788672669849924   T   T   T
  0.8602620642719618  0.1032932688258801  0.7220158966208227   T   T   T
  0.7875563176234749  0.7133982261592742  0.6604841898776893   T   T   T
  0.8690538093440781  0.6891648562335565  0.6728102779127511   T   T   T
 
  0.00000000E+00  0.00000000E+00  0.00000000E+00
  0.00000000E+00  0.00000000E+00  0.00000000E+00
  0.00000000E+00  0.00000000E+00  0.00000000E+00
  0.00000000E+00  0.00000000E+00  0.00000000E+00
  0.00000000E+00  0.00000000E+00  0.00000000E+00
  0.00000000E+00  0.00000000E+00  0.00000000E+00
  0.00000000E+00  0.00000000E+00  0.00000000E+00
  0.00000000E+00  0.00000000E+00  0.00000000E+00
  0.00000000E+00  0.00000000E+00  0.00000000E+00
  0.00000000E+00  0.00000000E+00  0.00000000E+00
  0.00000000E+00  0.00000000E+00  0.00000000E+00
  0.00000000E+00  0.00000000E+00  0.00000000E+00
  0.00000000E+00  0.00000000E+00  0.00000000E+00
  0.00000000E+00  0.00000000E+00  0.00000000E+00
  0.00000000E+00  0.00000000E+00  0.00000000E+00
  0.00000000E+00  0.00000000E+00  0.00000000E+00
  0.00000000E+00  0.00000000E+00  0.00000000E+00
  0.00000000E+00  0.00000000E+00  0.00000000E+00
  0.00000000E+00  0.00000000E+00  0.00000000E+00
  0.00000000E+00  0.00000000E+00  0.00000000E+00
  0.00000000E+00  0.00000000E+00  0.00000000E+00
  0.00000000E+00  0.00000000E+00  0.00000000E+00
  0.00000000E+00  0.00000000E+00  0.00000000E+00
  0.00000000E+00  0.00000000E+00  0.00000000E+00
  0.00000000E+00  0.00000000E+00  0.00000000E+00
  0.00000000E+00  0.00000000E+00  0.00000000E+00
  0.00000000E+00  0.00000000E+00  0.00000000E+00
  0.00000000E+00  0.00000000E+00  0.00000000E+00
  0.00000000E+00  0.00000000E+00  0.00000000E+00
  0.00000000E+00  0.00000000E+00  0.00000000E+00
  0.00000000E+00  0.00000000E+00  0.00000000E+00
  0.00000000E+00  0.00000000E+00  0.00000000E+00
  0.00000000E+00  0.00000000E+00  0.00000000E+00
  0.00000000E+00  0.00000000E+00  0.00000000E+00
  0.00000000E+00  0.00000000E+00  0.00000000E+00
  0.00000000E+00  0.00000000E+00  0.00000000E+00
  0.00000000E+00  0.00000000E+00  0.00000000E+00
  0.00000000E+00  0.00000000E+00  0.00000000E+00
  0.00000000E+00  0.00000000E+00  0.00000000E+00
  0.00000000E+00  0.00000000E+00  0.00000000E+00
  0.00000000E+00  0.00000000E+00  0.00000000E+00
  0.00000000E+00  0.00000000E+00  0.00000000E+00
  0.00000000E+00  0.00000000E+00  0.00000000E+00
  0.00000000E+00  0.00000000E+00  0.00000000E+00
  0.00000000E+00  0.00000000E+00  0.00000000E+00
  0.00000000E+00  0.00000000E+00  0.00000000E+00
  0.00000000E+00  0.00000000E+00  0.00000000E+00
  0.00000000E+00  0.00000000E+00  0.00000000E+00
  0.00000000E+00  0.00000000E+00  0.00000000E+00
  0.00000000E+00  0.00000000E+00  0.00000000E+00
  0.00000000E+00  0.00000000E+00  0.00000000E+00
  0.00000000E+00  0.00000000E+00  0.00000000E+00
  0.00000000E+00  0.00000000E+00  0.00000000E+00
  0.00000000E+00  0.00000000E+00  0.00000000E+00
  0.00000000E+00  0.00000000E+00  0.00000000E+00
  0.00000000E+00  0.00000000E+00  0.00000000E+00
  0.00000000E+00  0.00000000E+00  0.00000000E+00
  0.00000000E+00  0.00000000E+00  0.00000000E+00
  0.00000000E+00  0.00000000E+00  0.00000000E+00
  0.00000000E+00  0.00000000E+00  0.00000000E+00
  0.00000000E+00  0.00000000E+00  0.00000000E+00
  0.00000000E+00  0.00000000E+00  0.00000000E+00
