Pt  C  O  C  O  H                       
    1.000000000000000     
    11.2213408561008308    0.0000000000000000    0.0000000000000000
     1.4026676070126025   10.7740943252779040    0.0000000000000000
     0.0000000000000000    0.0000000000000000   27.7475611781839042
   Pt   C    O    C    O    H 
    56     1     1     1     2     1
Selective dynamics
Direct
  0.0169491525423737  0.8644067796610173  0.3976208246282127   F   F   F
  0.1694915254237301  0.6440677966101660  0.4162352201503552   F   F   F
  0.0720338983050866  0.4237288135593218  0.4348496156724977   F   F   F
  0.2245762711864430  0.2033898305084776  0.4534640111946402   F   F   F
  0.1268777085885330  0.9869713712352898  0.4655567662511844   T   T   T
  0.0279551555737201  0.7699617865929523  0.4927457387568242   T   T   T
  0.1813709208448866  0.5479318066634683  0.5093000097167062   T   T   T
  0.0839267823241045  0.3276598337488727  0.5266010035516364   T   T   T
  0.2353942300352665  0.0982442731851162  0.5420647319216065   T   T   T
  0.1394479398266728  0.8773841481667427  0.5706553290602948   T   T   T
  0.0408900826375523  0.6607599388761610  0.5864234325813312   T   T   T
  0.1917580189984047  0.4478590373429899  0.6030015165371975   T   T   T
  0.0943085839114410  0.2344513072421755  0.6183054167962878   T   T   T
  0.9955869207678436  0.0230560030311120  0.6321497136329733   T   T   T
  0.2669491525423737  0.8644067796610173  0.3976208246282127   F   F   F
  0.4194915254237301  0.6440677966101660  0.4162352201503552   F   F   F
  0.3220338983050866  0.4237288135593218  0.4348496156724977   F   F   F
  0.4745762711864430  0.2033898305084776  0.4534640111946402   F   F   F
  0.3771169856920978  0.9876237118597475  0.4662716393024438   T   T   T
  0.2771786202923358  0.7703059047907170  0.4928846274227119   T   T   T
  0.4301786208205834  0.5501031896616784  0.5106082599811644   T   T   T
  0.3358410373129908  0.3283365360300695  0.5272273210356427   T   T   T
  0.4863299603452785  0.0975327914235883  0.5445479818919354   T   T   T
  0.3879005400607862  0.8773331521371207  0.5697830368497127   T   T   T
  0.2871293622007541  0.6625459545691474  0.5863179768606207   T   T   T
  0.4394970402645724  0.4511770638324299  0.6077325299621084   T   T   T
  0.3449929872478237  0.2344992823602737  0.6173823179272815   T   T   T
  0.2449107056569106  0.0197175783787722  0.6366320538752809   T   T   T
  0.5169491525423737  0.8644067796610173  0.3976208246282127   F   F   F
  0.6694915254237301  0.6440677966101660  0.4162352201503552   F   F   F
  0.5720338983050866  0.4237288135593218  0.4348496156724977   F   F   F
  0.7245762711864430  0.2033898305084776  0.4534640111946402   F   F   F
  0.6257269798243312  0.9887050762439223  0.4661618395199815   T   T   T
  0.5276127591618867  0.7692181617379120  0.4936984594117400   T   T   T
  0.6792110888015569  0.5502007170372021  0.5103336484720330   T   T   T
  0.5828606515546876  0.3304374913625377  0.5268822081613316   T   T   T
  0.7394181084720232  0.1006623500415932  0.5430235974097990   T   T   T
  0.6376590338368994  0.8780425725063744  0.5680932477982249   T   T   T
  0.5397407034930549  0.6676193855850907  0.5909631171049817   T   T   T
  0.6942655891699504  0.4522350942037184  0.6075439532969080   T   T   T
  0.5930887750620039  0.2351345905970882  0.6168339282097667   T   T   T
  0.4965832069391491  0.0170023586269042  0.6412742602006908   T   T   T
  0.7669491525423737  0.8644067796610173  0.3976208246282127   F   F   F
  0.9194915254237301  0.6440677966101660  0.4162352201503552   F   F   F
  0.8220338983050866  0.4237288135593218  0.4348496156724977   F   F   F
  0.9745762711864430  0.2033898305084776  0.4534640111946402   F   F   F
  0.8756917398353427  0.9875502005208625  0.4654998515827488   T   T   T
  0.7785160325990190  0.7698326152816861  0.4921658733284878   T   T   T
  0.9314896155761748  0.5476972829020553  0.5091349426794652   T   T   T
  0.8305746755508330  0.3308360006298084  0.5274950775407907   T   T   T
  0.9865377567597318  0.1009785331522716  0.5409968130693388   T   T   T
  0.8907884202064514  0.8766069396832413  0.5694696463477418   T   T   T
  0.7936460877802953  0.6633631277262541  0.5851667103218462   T   T   T
  0.9420646164992634  0.4479049754970045  0.6028530594434791   T   T   T
  0.8419593901893135  0.2348131199591212  0.6184572465410703   T   T   T
  0.7433354210947886  0.0192662940371406  0.6330336216238536   T   T   T
  0.3646933877694683  0.9935610875154099  0.6896411564297944   T   T   T
  0.3651708907273863  0.9712054010567652  0.7313661641064382   T   T   T
  0.5550964770252700  0.5471968593196319  0.6498879300174100   T   T   T
  0.5533104288426741  0.5680700682697993  0.6922803287429088   T   T   T
  0.6502783149665622  0.9493348044130705  0.6897261882387345   T   T   T
  0.6606600028150802  0.8584212560712785  0.6870936464139804   T   T   T
 
  0.00000000E+00  0.00000000E+00  0.00000000E+00
  0.00000000E+00  0.00000000E+00  0.00000000E+00
  0.00000000E+00  0.00000000E+00  0.00000000E+00
  0.00000000E+00  0.00000000E+00  0.00000000E+00
  0.00000000E+00  0.00000000E+00  0.00000000E+00
  0.00000000E+00  0.00000000E+00  0.00000000E+00
  0.00000000E+00  0.00000000E+00  0.00000000E+00
  0.00000000E+00  0.00000000E+00  0.00000000E+00
  0.00000000E+00  0.00000000E+00  0.00000000E+00
  0.00000000E+00  0.00000000E+00  0.00000000E+00
  0.00000000E+00  0.00000000E+00  0.00000000E+00
  0.00000000E+00  0.00000000E+00  0.00000000E+00
  0.00000000E+00  0.00000000E+00  0.00000000E+00
  0.00000000E+00  0.00000000E+00  0.00000000E+00
  0.00000000E+00  0.00000000E+00  0.00000000E+00
  0.00000000E+00  0.00000000E+00  0.00000000E+00
  0.00000000E+00  0.00000000E+00  0.00000000E+00
  0.00000000E+00  0.00000000E+00  0.00000000E+00
  0.00000000E+00  0.00000000E+00  0.00000000E+00
  0.00000000E+00  0.00000000E+00  0.00000000E+00
  0.00000000E+00  0.00000000E+00  0.00000000E+00
  0.00000000E+00  0.00000000E+00  0.00000000E+00
  0.00000000E+00  0.00000000E+00  0.00000000E+00
  0.00000000E+00  0.00000000E+00  0.00000000E+00
  0.00000000E+00  0.00000000E+00  0.00000000E+00
  0.00000000E+00  0.00000000E+00  0.00000000E+00
  0.00000000E+00  0.00000000E+00  0.00000000E+00
  0.00000000E+00  0.00000000E+00  0.00000000E+00
  0.00000000E+00  0.00000000E+00  0.00000000E+00
  0.00000000E+00  0.00000000E+00  0.00000000E+00
  0.00000000E+00  0.00000000E+00  0.00000000E+00
  0.00000000E+00  0.00000000E+00  0.00000000E+00
  0.00000000E+00  0.00000000E+00  0.00000000E+00
  0.00000000E+00  0.00000000E+00  0.00000000E+00
  0.00000000E+00  0.00000000E+00  0.00000000E+00
  0.00000000E+00  0.00000000E+00  0.00000000E+00
  0.00000000E+00  0.00000000E+00  0.00000000E+00
  0.00000000E+00  0.00000000E+00  0.00000000E+00
  0.00000000E+00  0.00000000E+00  0.00000000E+00
  0.00000000E+00  0.00000000E+00  0.00000000E+00
  0.00000000E+00  0.00000000E+00  0.00000000E+00
  0.00000000E+00  0.00000000E+00  0.00000000E+00
  0.00000000E+00  0.00000000E+00  0.00000000E+00
  0.00000000E+00  0.00000000E+00  0.00000000E+00
  0.00000000E+00  0.00000000E+00  0.00000000E+00
  0.00000000E+00  0.00000000E+00  0.00000000E+00
  0.00000000E+00  0.00000000E+00  0.00000000E+00
  0.00000000E+00  0.00000000E+00  0.00000000E+00
  0.00000000E+00  0.00000000E+00  0.00000000E+00
  0.00000000E+00  0.00000000E+00  0.00000000E+00
  0.00000000E+00  0.00000000E+00  0.00000000E+00
  0.00000000E+00  0.00000000E+00  0.00000000E+00
  0.00000000E+00  0.00000000E+00  0.00000000E+00
  0.00000000E+00  0.00000000E+00  0.00000000E+00
  0.00000000E+00  0.00000000E+00  0.00000000E+00
  0.00000000E+00  0.00000000E+00  0.00000000E+00
  0.00000000E+00  0.00000000E+00  0.00000000E+00
  0.00000000E+00  0.00000000E+00  0.00000000E+00
  0.00000000E+00  0.00000000E+00  0.00000000E+00
  0.00000000E+00  0.00000000E+00  0.00000000E+00
  0.00000000E+00  0.00000000E+00  0.00000000E+00
  0.00000000E+00  0.00000000E+00  0.00000000E+00
