Pt  C  O  C  O  H                       
    1.000000000000000     
    11.2213408561008308    0.0000000000000000    0.0000000000000000
     1.4026676070126025   10.7740943252779040    0.0000000000000000
     0.0000000000000000    0.0000000000000000   27.7475611781839042
   Pt   C    O    C    O    H 
    56     1     1     1     2     1
Selective dynamics
Direct
  0.0169491525423737  0.8644067796610173  0.3976208246282127   F   F   F
  0.1694915254237301  0.6440677966101660  0.4162352201503552   F   F   F
  0.0720338983050866  0.4237288135593218  0.4348496156724977   F   F   F
  0.2245762711864430  0.2033898305084776  0.4534640111946402   F   F   F
  0.1269590147669714  0.9898996310871127  0.4647952141140598   T   T   T
  0.0297630146051397  0.7716011764477233  0.4924975127805152   T   T   T
  0.1815337104525460  0.5492813484768315  0.5088691951767621   T   T   T
  0.0850893069060738  0.3284634056598125  0.5266267313195707   T   T   T
  0.2390633890822454  0.1046567601165664  0.5447340677852819   T   T   T
  0.1395702451565209  0.8837938510179781  0.5692509702516019   T   T   T
  0.0417755876458371  0.6675521053232567  0.5854672487414698   T   T   T
  0.1899490720881500  0.4564605092134956  0.6026854169863519   T   T   T
  0.1002617555762347  0.2403546739057035  0.6186603457036451   T   T   T
  0.9977998103452431  0.0267249071501681  0.6329595554382449   T   T   T
  0.2669491525423737  0.8644067796610173  0.3976208246282127   F   F   F
  0.4194915254237301  0.6440677966101660  0.4162352201503552   F   F   F
  0.3220338983050866  0.4237288135593218  0.4348496156724977   F   F   F
  0.4745762711864430  0.2033898305084776  0.4534640111946402   F   F   F
  0.3748624172349582  0.9899175414539397  0.4652639288799555   T   T   T
  0.2799266217037283  0.7707877816057418  0.4923458435804166   T   T   T
  0.4329959987426605  0.5465589941076455  0.5106134955398386   T   T   T
  0.3345603303072043  0.3293267369440113  0.5282301609435928   T   T   T
  0.4880986472601675  0.1039333782611331  0.5414269010509898   T   T   T
  0.3908509648572072  0.8815847000109321  0.5684612601819046   T   T   T
  0.2913546253335723  0.6663026834383264  0.5848368999075313   T   T   T
  0.4413325642094501  0.4593809130287677  0.6081510588018629   T   T   T
  0.3436242295060485  0.2418609309280586  0.6239504051723097   T   T   T
  0.2518005066416613  0.0232916914855023  0.6353824605124966   T   T   T
  0.5169491525423737  0.8644067796610173  0.3976208246282127   F   F   F
  0.6694915254237301  0.6440677966101660  0.4162352201503552   F   F   F
  0.5720338983050866  0.4237288135593218  0.4348496156724977   F   F   F
  0.7245762711864430  0.2033898305084776  0.4534640111946402   F   F   F
  0.6264448101576785  0.9884158130238486  0.4642723733470092   T   T   T
  0.5277783176790141  0.7703136642723268  0.4924688820374966   T   T   T
  0.6833240207711230  0.5448352150024474  0.5095535089329928   T   T   T
  0.5836854052413815  0.3281059552644887  0.5291901378126936   T   T   T
  0.7363025963210432  0.1019669015906940  0.5414414374673187   T   T   T
  0.6429662117279121  0.8784994571323982  0.5690773333299347   T   T   T
  0.5431327320042564  0.6638293770778116  0.5851056737925239   T   T   T
  0.6985184922105472  0.4540071104417813  0.6041551749773376   T   T   T
  0.5937279827313297  0.2470779415756525  0.6262552102519156   T   T   T
  0.5016458558990106  0.0238799344094121  0.6308112832777701   T   T   T
  0.7669491525423737  0.8644067796610173  0.3976208246282127   F   F   F
  0.9194915254237301  0.6440677966101660  0.4162352201503552   F   F   F
  0.8220338983050866  0.4237288135593218  0.4348496156724977   F   F   F
  0.9745762711864430  0.2033898305084776  0.4534640111946402   F   F   F
  0.8769749914606718  0.9881006910059452  0.4647923170443082   T   T   T
  0.7780152435381003  0.7700371257834772  0.4925472490603705   T   T   T
  0.9312914303580587  0.5469427450735121  0.5096230859408541   T   T   T
  0.8338864178680424  0.3250004975494808  0.5293847741933790   T   T   T
  0.9866440840493756  0.1030220960552511  0.5415159306393305   T   T   T
  0.8898932135549630  0.8804607686604836  0.5683531882957199   T   T   T
  0.7942809118767444  0.6643001980295405  0.5858811585309491   T   T   T
  0.9455168332803993  0.4506932493745062  0.6034679175344070   T   T   T
  0.8445858262361655  0.2459615805855455  0.6276391685107829   T   T   T
  0.7419989170178209  0.0293276001553902  0.6327200142814359   T   T   T
  0.4526249100457665  0.3397696854900842  0.6674011456485701   T   T   T
  0.4489184938338390  0.3580261398587696  0.7098888234742632   T   T   T
  0.8633849691065800  0.1097816860266556  0.6799781903055510   T   T   T
  0.8623461210419668  0.1047600018665677  0.7230035667622630   T   T   T
  0.2534393272027530  0.9557170443117270  0.7010625987700831   T   T   T
  0.3358485241924979  0.9437377657093449  0.7134791794105328   T   T   T
 
  0.00000000E+00  0.00000000E+00  0.00000000E+00
  0.00000000E+00  0.00000000E+00  0.00000000E+00
  0.00000000E+00  0.00000000E+00  0.00000000E+00
  0.00000000E+00  0.00000000E+00  0.00000000E+00
  0.00000000E+00  0.00000000E+00  0.00000000E+00
  0.00000000E+00  0.00000000E+00  0.00000000E+00
  0.00000000E+00  0.00000000E+00  0.00000000E+00
  0.00000000E+00  0.00000000E+00  0.00000000E+00
  0.00000000E+00  0.00000000E+00  0.00000000E+00
  0.00000000E+00  0.00000000E+00  0.00000000E+00
  0.00000000E+00  0.00000000E+00  0.00000000E+00
  0.00000000E+00  0.00000000E+00  0.00000000E+00
  0.00000000E+00  0.00000000E+00  0.00000000E+00
  0.00000000E+00  0.00000000E+00  0.00000000E+00
  0.00000000E+00  0.00000000E+00  0.00000000E+00
  0.00000000E+00  0.00000000E+00  0.00000000E+00
  0.00000000E+00  0.00000000E+00  0.00000000E+00
  0.00000000E+00  0.00000000E+00  0.00000000E+00
  0.00000000E+00  0.00000000E+00  0.00000000E+00
  0.00000000E+00  0.00000000E+00  0.00000000E+00
  0.00000000E+00  0.00000000E+00  0.00000000E+00
  0.00000000E+00  0.00000000E+00  0.00000000E+00
  0.00000000E+00  0.00000000E+00  0.00000000E+00
  0.00000000E+00  0.00000000E+00  0.00000000E+00
  0.00000000E+00  0.00000000E+00  0.00000000E+00
  0.00000000E+00  0.00000000E+00  0.00000000E+00
  0.00000000E+00  0.00000000E+00  0.00000000E+00
  0.00000000E+00  0.00000000E+00  0.00000000E+00
  0.00000000E+00  0.00000000E+00  0.00000000E+00
  0.00000000E+00  0.00000000E+00  0.00000000E+00
  0.00000000E+00  0.00000000E+00  0.00000000E+00
  0.00000000E+00  0.00000000E+00  0.00000000E+00
  0.00000000E+00  0.00000000E+00  0.00000000E+00
  0.00000000E+00  0.00000000E+00  0.00000000E+00
  0.00000000E+00  0.00000000E+00  0.00000000E+00
  0.00000000E+00  0.00000000E+00  0.00000000E+00
  0.00000000E+00  0.00000000E+00  0.00000000E+00
  0.00000000E+00  0.00000000E+00  0.00000000E+00
  0.00000000E+00  0.00000000E+00  0.00000000E+00
  0.00000000E+00  0.00000000E+00  0.00000000E+00
  0.00000000E+00  0.00000000E+00  0.00000000E+00
  0.00000000E+00  0.00000000E+00  0.00000000E+00
  0.00000000E+00  0.00000000E+00  0.00000000E+00
  0.00000000E+00  0.00000000E+00  0.00000000E+00
  0.00000000E+00  0.00000000E+00  0.00000000E+00
  0.00000000E+00  0.00000000E+00  0.00000000E+00
  0.00000000E+00  0.00000000E+00  0.00000000E+00
  0.00000000E+00  0.00000000E+00  0.00000000E+00
  0.00000000E+00  0.00000000E+00  0.00000000E+00
  0.00000000E+00  0.00000000E+00  0.00000000E+00
  0.00000000E+00  0.00000000E+00  0.00000000E+00
  0.00000000E+00  0.00000000E+00  0.00000000E+00
  0.00000000E+00  0.00000000E+00  0.00000000E+00
  0.00000000E+00  0.00000000E+00  0.00000000E+00
  0.00000000E+00  0.00000000E+00  0.00000000E+00
  0.00000000E+00  0.00000000E+00  0.00000000E+00
  0.00000000E+00  0.00000000E+00  0.00000000E+00
  0.00000000E+00  0.00000000E+00  0.00000000E+00
  0.00000000E+00  0.00000000E+00  0.00000000E+00
  0.00000000E+00  0.00000000E+00  0.00000000E+00
  0.00000000E+00  0.00000000E+00  0.00000000E+00
  0.00000000E+00  0.00000000E+00  0.00000000E+00
