Pt  C  O  C  O  H                       
    1.000000000000000     
    11.2213408561008308    0.0000000000000000    0.0000000000000000
     1.4026676070126025   10.7740943252779040    0.0000000000000000
     0.0000000000000000    0.0000000000000000   27.7475611781839042
   Pt   C    O    C    O    H 
    56     1     1     1     2     1
Selective dynamics
Direct
  0.0169491525423737  0.8644067796610173  0.3976208246282127   F   F   F
  0.1694915254237301  0.6440677966101660  0.4162352201503552   F   F   F
  0.0720338983050866  0.4237288135593218  0.4348496156724977   F   F   F
  0.2245762711864430  0.2033898305084776  0.4534640111946402   F   F   F
  0.1259638319393372  0.9893230894858888  0.4639785744841340   T   T   T
  0.0274937431219490  0.7698579542872599  0.4922961399171892   T   T   T
  0.1818713700690415  0.5441671100872723  0.5091283361369958   T   T   T
  0.0824753495302957  0.3272853648008620  0.5294332461094037   T   T   T
  0.2366583712071988  0.1037816223384956  0.5412383049711957   T   T   T
  0.1408153573091911  0.8797160396865016  0.5676471448951422   T   T   T
  0.0406742926511524  0.6641706213290199  0.5847259308901805   T   T   T
  0.1960045988287040  0.4559211331519535  0.6037040932077926   T   T   T
  0.0983526140109376  0.2455028657301663  0.6266052536341991   T   T   T
  0.0038708703377329  0.0250956856664458  0.6306098680812060   T   T   T
  0.2669491525423737  0.8644067796610173  0.3976208246282127   F   F   F
  0.4194915254237301  0.6440677966101660  0.4162352201503552   F   F   F
  0.3220338983050866  0.4237288135593218  0.4348496156724977   F   F   F
  0.4745762711864430  0.2033898305084776  0.4534640111946402   F   F   F
  0.3766079527968919  0.9887983659974116  0.4639156677324431   T   T   T
  0.2782071261138792  0.7703798530708817  0.4920118229672866   T   T   T
  0.4315227332418885  0.5452698486586022  0.5088762411382564   T   T   T
  0.3332112259795535  0.3248252460302837  0.5295194207216471   T   T   T
  0.4868545973624102  0.1019930638057683  0.5408822406457668   T   T   T
  0.3892494287457534  0.8799466074000973  0.5678404572716407   T   T   T
  0.2913718160777227  0.6657450215148042  0.5843365508506940   T   T   T
  0.4434505686605291  0.4566008431337654  0.6019408079805165   T   T   T
  0.3446403283779934  0.2475547445467065  0.6299461743936854   T   T   T
  0.2462065796670482  0.0301447024626847  0.6304633286940935   T   T   T
  0.5169491525423737  0.8644067796610173  0.3976208246282127   F   F   F
  0.6694915254237301  0.6440677966101660  0.4162352201503552   F   F   F
  0.5720338983050866  0.4237288135593218  0.4348496156724977   F   F   F
  0.7245762711864430  0.2033898305084776  0.4534640111946402   F   F   F
  0.6276452224341338  0.9899538588603692  0.4645384743223980   T   T   T
  0.5299309622055253  0.7709552176281974  0.4922086215610202   T   T   T
  0.6811258637990779  0.5455454289985620  0.5089597507218482   T   T   T
  0.5846818561117946  0.3242919085078094  0.5290716858293097   T   T   T
  0.7364498681458721  0.1055502508680491  0.5458932169329137   T   T   T
  0.6412178643635634  0.8834096463525517  0.5686475675855155   T   T   T
  0.5426710884530042  0.6675117501522843  0.5846783004210433   T   T   T
  0.6899177912944794  0.4550268655347916  0.6027203972436721   T   T   T
  0.5949306270718999  0.2410851362202084  0.6277950700125770   T   T   T
  0.4923823894311544  0.0239741758531630  0.6295889009206033   T   T   T
  0.7669491525423737  0.8644067796610173  0.3976208246282127   F   F   F
  0.9194915254237301  0.6440677966101660  0.4162352201503552   F   F   F
  0.8220338983050866  0.4237288135593218  0.4348496156724977   F   F   F
  0.9745762711864430  0.2033898305084776  0.4534640111946402   F   F   F
  0.8748686890380276  0.9902368830164119  0.4647277370562539   T   T   T
  0.7791685480772530  0.7697496312877260  0.4923601937755404   T   T   T
  0.9313630397357925  0.5446441538693466  0.5107535592309131   T   T   T
  0.8336172865034792  0.3268110335499863  0.5286397845842784   T   T   T
  0.9867838301126630  0.1031962480612735  0.5412274307953502   T   T   T
  0.8898362030674614  0.8822146000539043  0.5684399417298557   T   T   T
  0.7912770450838191  0.6657670319626989  0.5848596469985008   T   T   T
  0.9416139948468581  0.4573666285690518  0.6085073001687121   T   T   T
  0.8423705515955199  0.2409356533113581  0.6246754660595766   T   T   T
  0.7532567072170746  0.0225953833574319  0.6359086561504460   T   T   T
  0.4701218068899606  0.2719643702262706  0.6797203780813845   T   T   T
  0.4678011611553656  0.2961031614507216  0.7213160976588102   T   T   T
  0.9540666485358273  0.3363856950261640  0.6675219734668726   T   T   T
  0.9519428321175034  0.3540816143042138  0.7100830315136760   T   T   T
  0.7542866552483171  0.9545301035336970  0.7015345854739186   T   T   T
  0.8366704146576649  0.9387666841205131  0.7138148822654878   T   T   T
 
  0.00000000E+00  0.00000000E+00  0.00000000E+00
  0.00000000E+00  0.00000000E+00  0.00000000E+00
  0.00000000E+00  0.00000000E+00  0.00000000E+00
  0.00000000E+00  0.00000000E+00  0.00000000E+00
  0.00000000E+00  0.00000000E+00  0.00000000E+00
  0.00000000E+00  0.00000000E+00  0.00000000E+00
  0.00000000E+00  0.00000000E+00  0.00000000E+00
  0.00000000E+00  0.00000000E+00  0.00000000E+00
  0.00000000E+00  0.00000000E+00  0.00000000E+00
  0.00000000E+00  0.00000000E+00  0.00000000E+00
  0.00000000E+00  0.00000000E+00  0.00000000E+00
  0.00000000E+00  0.00000000E+00  0.00000000E+00
  0.00000000E+00  0.00000000E+00  0.00000000E+00
  0.00000000E+00  0.00000000E+00  0.00000000E+00
  0.00000000E+00  0.00000000E+00  0.00000000E+00
  0.00000000E+00  0.00000000E+00  0.00000000E+00
  0.00000000E+00  0.00000000E+00  0.00000000E+00
  0.00000000E+00  0.00000000E+00  0.00000000E+00
  0.00000000E+00  0.00000000E+00  0.00000000E+00
  0.00000000E+00  0.00000000E+00  0.00000000E+00
  0.00000000E+00  0.00000000E+00  0.00000000E+00
  0.00000000E+00  0.00000000E+00  0.00000000E+00
  0.00000000E+00  0.00000000E+00  0.00000000E+00
  0.00000000E+00  0.00000000E+00  0.00000000E+00
  0.00000000E+00  0.00000000E+00  0.00000000E+00
  0.00000000E+00  0.00000000E+00  0.00000000E+00
  0.00000000E+00  0.00000000E+00  0.00000000E+00
  0.00000000E+00  0.00000000E+00  0.00000000E+00
  0.00000000E+00  0.00000000E+00  0.00000000E+00
  0.00000000E+00  0.00000000E+00  0.00000000E+00
  0.00000000E+00  0.00000000E+00  0.00000000E+00
  0.00000000E+00  0.00000000E+00  0.00000000E+00
  0.00000000E+00  0.00000000E+00  0.00000000E+00
  0.00000000E+00  0.00000000E+00  0.00000000E+00
  0.00000000E+00  0.00000000E+00  0.00000000E+00
  0.00000000E+00  0.00000000E+00  0.00000000E+00
  0.00000000E+00  0.00000000E+00  0.00000000E+00
  0.00000000E+00  0.00000000E+00  0.00000000E+00
  0.00000000E+00  0.00000000E+00  0.00000000E+00
  0.00000000E+00  0.00000000E+00  0.00000000E+00
  0.00000000E+00  0.00000000E+00  0.00000000E+00
  0.00000000E+00  0.00000000E+00  0.00000000E+00
  0.00000000E+00  0.00000000E+00  0.00000000E+00
  0.00000000E+00  0.00000000E+00  0.00000000E+00
  0.00000000E+00  0.00000000E+00  0.00000000E+00
  0.00000000E+00  0.00000000E+00  0.00000000E+00
  0.00000000E+00  0.00000000E+00  0.00000000E+00
  0.00000000E+00  0.00000000E+00  0.00000000E+00
  0.00000000E+00  0.00000000E+00  0.00000000E+00
  0.00000000E+00  0.00000000E+00  0.00000000E+00
  0.00000000E+00  0.00000000E+00  0.00000000E+00
  0.00000000E+00  0.00000000E+00  0.00000000E+00
  0.00000000E+00  0.00000000E+00  0.00000000E+00
  0.00000000E+00  0.00000000E+00  0.00000000E+00
  0.00000000E+00  0.00000000E+00  0.00000000E+00
  0.00000000E+00  0.00000000E+00  0.00000000E+00
  0.00000000E+00  0.00000000E+00  0.00000000E+00
  0.00000000E+00  0.00000000E+00  0.00000000E+00
  0.00000000E+00  0.00000000E+00  0.00000000E+00
  0.00000000E+00  0.00000000E+00  0.00000000E+00
  0.00000000E+00  0.00000000E+00  0.00000000E+00
  0.00000000E+00  0.00000000E+00  0.00000000E+00
