Pt  C  O  C  O  H                       
    1.000000000000000     
    11.2213408561008308    0.0000000000000000    0.0000000000000000
     1.4026676070126025   10.7740943252779040    0.0000000000000000
     0.0000000000000000    0.0000000000000000   27.7475611781839042
   Pt   C    O    C    O    H 
    56     1     1     1     2     1
Selective dynamics
Direct
  0.0169491525423737  0.8644067796610173  0.3976208246282127   F   F   F
  0.1694915254237301  0.6440677966101660  0.4162352201503552   F   F   F
  0.0720338983050866  0.4237288135593218  0.4348496156724977   F   F   F
  0.2245762711864430  0.2033898305084776  0.4534640111946402   F   F   F
  0.1263960847480959  0.9881438003444762  0.4646945035826726   T   T   T
  0.0281074095458515  0.7718968150943227  0.4922057541617176   T   T   T
  0.1812366146914365  0.5489572781735430  0.5094726282959535   T   T   T
  0.0841755805330914  0.3297307531820122  0.5271170702830800   T   T   T
  0.2381660319305247  0.1045618175457449  0.5410812644407397   T   T   T
  0.1399520044582593  0.8790284625858092  0.5683911276669669   T   T   T
  0.0407653963081360  0.6661597862469316  0.5858204302714826   T   T   T
  0.1893174731897063  0.4546118981520309  0.6031226049423714   T   T   T
  0.0924367257774620  0.2433363276342789  0.6200903743160291   T   T   T
  0.0008136669245487  0.0267894265257410  0.6311839290990182   T   T   T
  0.2669491525423737  0.8644067796610173  0.3976208246282127   F   F   F
  0.4194915254237301  0.6440677966101660  0.4162352201503552   F   F   F
  0.3220338983050866  0.4237288135593218  0.4348496156724977   F   F   F
  0.4745762711864430  0.2033898305084776  0.4534640111946402   F   F   F
  0.3778547258801547  0.9888687788309519  0.4651737867099393   T   T   T
  0.2790802362747897  0.7702589862661950  0.4927915105210718   T   T   T
  0.4310229067825265  0.5471260763046711  0.5109193403471011   T   T   T
  0.3351616794470006  0.3287231959729925  0.5281140327678163   T   T   T
  0.4867786200351321  0.1018885943042654  0.5450605652767615   T   T   T
  0.3893209827548648  0.8807917296361993  0.5684854315310168   T   T   T
  0.2924670011567624  0.6648437198819001  0.5862756032204786   T   T   T
  0.4423560781978471  0.4573530713736715  0.6079639833143885   T   T   T
  0.3401328971280203  0.2415674163595943  0.6234989702756628   T   T   T
  0.2410828779071041  0.0279489713843208  0.6309609370793793   T   T   T
  0.5169491525423737  0.8644067796610173  0.3976208246282127   F   F   F
  0.6694915254237301  0.6440677966101660  0.4162352201503552   F   F   F
  0.5720338983050866  0.4237288135593218  0.4348496156724977   F   F   F
  0.7245762711864430  0.2033898305084776  0.4534640111946402   F   F   F
  0.6265398948080905  0.9904164977865997  0.4662763481483537   T   T   T
  0.5284478918314544  0.7702037507286069  0.4924270018963084   T   T   T
  0.6810615569139475  0.5492120312513801  0.5090740221049017   T   T   T
  0.5830516648856010  0.3268983311253843  0.5276028522288319   T   T   T
  0.7356390906272040  0.1034787355132342  0.5460638113888651   T   T   T
  0.6395520165878734  0.8814805453133057  0.5696914211065762   T   T   T
  0.5423908218137303  0.6647395876092045  0.5857764663693900   T   T   T
  0.6951741885832695  0.4528942614209299  0.6024718014225339   T   T   T
  0.5951343518783303  0.2373985159233040  0.6219409843689896   T   T   T
  0.4902841751340965  0.0169980946715119  0.6350975670951350   T   T   T
  0.7669491525423737  0.8644067796610173  0.3976208246282127   F   F   F
  0.9194915254237301  0.6440677966101660  0.4162352201503552   F   F   F
  0.8220338983050866  0.4237288135593218  0.4348496156724977   F   F   F
  0.9745762711864430  0.2033898305084776  0.4534640111946402   F   F   F
  0.8748929805785777  0.9893685080366661  0.4655618383938139   T   T   T
  0.7778441914670265  0.7728147682025567  0.4927694864650571   T   T   T
  0.9311976352507502  0.5496481750369765  0.5093942284085692   T   T   T
  0.8331549898076644  0.3287437565437043  0.5265043256536623   T   T   T
  0.9875484273712190  0.1028805442980601  0.5406819460508563   T   T   T
  0.8899239802804009  0.8804715352143294  0.5689284049918224   T   T   T
  0.7906088716645226  0.6662249206890315  0.5857213604811717   T   T   T
  0.9425391259465662  0.4547862427941424  0.6031138041656086   T   T   T
  0.8450866754979294  0.2410792900851822  0.6185991184497701   T   T   T
  0.7515801270553047  0.0219867768723942  0.6368176989661164   T   T   T
  0.4588021990814383  0.3340437088401119  0.6655922887438410   T   T   T
  0.4576020008396944  0.3482143551548564  0.7083163155521119   T   T   T
  0.7729204134526431  0.9683209612255188  0.6999984381500197   T   T   T
  0.7868113279449223  0.9342538578098817  0.7395180853157255   T   T   T
  0.4745277150093453  0.9560307994178141  0.7013555925286027   T   T   T
  0.5520599842563324  0.9156537738493804  0.7131564672343014   T   T   T
 
  0.00000000E+00  0.00000000E+00  0.00000000E+00
  0.00000000E+00  0.00000000E+00  0.00000000E+00
  0.00000000E+00  0.00000000E+00  0.00000000E+00
  0.00000000E+00  0.00000000E+00  0.00000000E+00
  0.00000000E+00  0.00000000E+00  0.00000000E+00
  0.00000000E+00  0.00000000E+00  0.00000000E+00
  0.00000000E+00  0.00000000E+00  0.00000000E+00
  0.00000000E+00  0.00000000E+00  0.00000000E+00
  0.00000000E+00  0.00000000E+00  0.00000000E+00
  0.00000000E+00  0.00000000E+00  0.00000000E+00
  0.00000000E+00  0.00000000E+00  0.00000000E+00
  0.00000000E+00  0.00000000E+00  0.00000000E+00
  0.00000000E+00  0.00000000E+00  0.00000000E+00
  0.00000000E+00  0.00000000E+00  0.00000000E+00
  0.00000000E+00  0.00000000E+00  0.00000000E+00
  0.00000000E+00  0.00000000E+00  0.00000000E+00
  0.00000000E+00  0.00000000E+00  0.00000000E+00
  0.00000000E+00  0.00000000E+00  0.00000000E+00
  0.00000000E+00  0.00000000E+00  0.00000000E+00
  0.00000000E+00  0.00000000E+00  0.00000000E+00
  0.00000000E+00  0.00000000E+00  0.00000000E+00
  0.00000000E+00  0.00000000E+00  0.00000000E+00
  0.00000000E+00  0.00000000E+00  0.00000000E+00
  0.00000000E+00  0.00000000E+00  0.00000000E+00
  0.00000000E+00  0.00000000E+00  0.00000000E+00
  0.00000000E+00  0.00000000E+00  0.00000000E+00
  0.00000000E+00  0.00000000E+00  0.00000000E+00
  0.00000000E+00  0.00000000E+00  0.00000000E+00
  0.00000000E+00  0.00000000E+00  0.00000000E+00
  0.00000000E+00  0.00000000E+00  0.00000000E+00
  0.00000000E+00  0.00000000E+00  0.00000000E+00
  0.00000000E+00  0.00000000E+00  0.00000000E+00
  0.00000000E+00  0.00000000E+00  0.00000000E+00
  0.00000000E+00  0.00000000E+00  0.00000000E+00
  0.00000000E+00  0.00000000E+00  0.00000000E+00
  0.00000000E+00  0.00000000E+00  0.00000000E+00
  0.00000000E+00  0.00000000E+00  0.00000000E+00
  0.00000000E+00  0.00000000E+00  0.00000000E+00
  0.00000000E+00  0.00000000E+00  0.00000000E+00
  0.00000000E+00  0.00000000E+00  0.00000000E+00
  0.00000000E+00  0.00000000E+00  0.00000000E+00
  0.00000000E+00  0.00000000E+00  0.00000000E+00
  0.00000000E+00  0.00000000E+00  0.00000000E+00
  0.00000000E+00  0.00000000E+00  0.00000000E+00
  0.00000000E+00  0.00000000E+00  0.00000000E+00
  0.00000000E+00  0.00000000E+00  0.00000000E+00
  0.00000000E+00  0.00000000E+00  0.00000000E+00
  0.00000000E+00  0.00000000E+00  0.00000000E+00
  0.00000000E+00  0.00000000E+00  0.00000000E+00
  0.00000000E+00  0.00000000E+00  0.00000000E+00
  0.00000000E+00  0.00000000E+00  0.00000000E+00
  0.00000000E+00  0.00000000E+00  0.00000000E+00
  0.00000000E+00  0.00000000E+00  0.00000000E+00
  0.00000000E+00  0.00000000E+00  0.00000000E+00
  0.00000000E+00  0.00000000E+00  0.00000000E+00
  0.00000000E+00  0.00000000E+00  0.00000000E+00
  0.00000000E+00  0.00000000E+00  0.00000000E+00
  0.00000000E+00  0.00000000E+00  0.00000000E+00
  0.00000000E+00  0.00000000E+00  0.00000000E+00
  0.00000000E+00  0.00000000E+00  0.00000000E+00
  0.00000000E+00  0.00000000E+00  0.00000000E+00
  0.00000000E+00  0.00000000E+00  0.00000000E+00
