Pt  C  O  C  O  H                       
    1.000000000000000     
    11.2213408561008308    0.0000000000000000    0.0000000000000000
     1.4026676070126025   10.7740943252779040    0.0000000000000000
     0.0000000000000000    0.0000000000000000   27.7475611781839042
   Pt   C    O    C    O    H 
    56     1     1     1     2     1
Selective dynamics
Direct
  0.0169491525423737  0.8644067796610173  0.3976208246282127   F   F   F
  0.1694915254237301  0.6440677966101660  0.4162352201503552   F   F   F
  0.0720338983050866  0.4237288135593218  0.4348496156724977   F   F   F
  0.2245762711864430  0.2033898305084776  0.4534640111946402   F   F   F
  0.1266403402442172  0.9873565072900471  0.4647017925728656   T   T   T
  0.0266030878596273  0.7706090143977607  0.4930692830721934   T   T   T
  0.1785164189748159  0.5507176899122034  0.5097990995846577   T   T   T
  0.0801635220745204  0.3321081751973121  0.5279111328892634   T   T   T
  0.2354947987775737  0.1055763698848143  0.5404363408119085   T   T   T
  0.1376515140960083  0.8793513013143729  0.5684948068526828   T   T   T
  0.0398422732543937  0.6694412542710350  0.5910451089821314   T   T   T
  0.1932551524442423  0.4543916819390040  0.6029392559942205   T   T   T
  0.0888391235789125  0.2440417460485444  0.6199955271062215   T   T   T
  0.9938976575047518  0.0280840292951930  0.6305079801643689   T   T   T
  0.2669491525423737  0.8644067796610173  0.3976208246282127   F   F   F
  0.4194915254237301  0.6440677966101660  0.4162352201503552   F   F   F
  0.3220338983050866  0.4237288135593218  0.4348496156724977   F   F   F
  0.4745762711864430  0.2033898305084776  0.4534640111946402   F   F   F
  0.3761389983664055  0.9878237389598489  0.4648539299485523   T   T   T
  0.2776018129885197  0.7700148499520499  0.4923506607769939   T   T   T
  0.4292981235596652  0.5461675769052388  0.5104433814812033   T   T   T
  0.3323731503556115  0.3285743207383270  0.5315336306319428   T   T   T
  0.4860169891402114  0.1054398677699008  0.5410633953723951   T   T   T
  0.3874355481445123  0.8807342707105991  0.5685009446961153   T   T   T
  0.2890857079165743  0.6662988884812722  0.5861413081506875   T   T   T
  0.4401535209151470  0.4591109300225595  0.6084113039714486   T   T   T
  0.3375729200961810  0.2452454107710982  0.6263925603714184   T   T   T
  0.2416875071999269  0.0278332394710615  0.6291471019209698   T   T   T
  0.5169491525423737  0.8644067796610173  0.3976208246282127   F   F   F
  0.6694915254237301  0.6440677966101660  0.4162352201503552   F   F   F
  0.5720338983050866  0.4237288135593218  0.4348496156724977   F   F   F
  0.7245762711864430  0.2033898305084776  0.4534640111946402   F   F   F
  0.6260746020768827  0.9878906417026465  0.4649279679105626   T   T   T
  0.5270514082832095  0.7699064499736443  0.4920986868630720   T   T   T
  0.6799438989141763  0.5493661099774453  0.5112393951605024   T   T   T
  0.5832735130134821  0.3304490277803368  0.5287057252283109   T   T   T
  0.7352550258865017  0.1056370890920281  0.5407976555852557   T   T   T
  0.6374215727645982  0.8813037578152759  0.5683069892572674   T   T   T
  0.5398266442927941  0.6685664555334967  0.5847519773264174   T   T   T
  0.6898985296765801  0.4571902123672389  0.6086257512115364   T   T   T
  0.5947981070895502  0.2421411828422948  0.6254215815385614   T   T   T
  0.4942530146076231  0.0302317780602852  0.6298372411940529   T   T   T
  0.7669491525423737  0.8644067796610173  0.3976208246282127   F   F   F
  0.9194915254237301  0.6440677966101660  0.4162352201503552   F   F   F
  0.8220338983050866  0.4237288135593218  0.4348496156724977   F   F   F
  0.9745762711864430  0.2033898305084776  0.4534640111946402   F   F   F
  0.8762814357665173  0.9876385994448781  0.4643065674300313   T   T   T
  0.7769476445878137  0.7689751007017246  0.4930020446218150   T   T   T
  0.9292165271483974  0.5509029372611866  0.5107475038960634   T   T   T
  0.8322845599816353  0.3330891824360127  0.5286044556376333   T   T   T
  0.9860068726259735  0.1031096421967648  0.5401688080146942   T   T   T
  0.8868291534084622  0.8833829151791405  0.5672891352908884   T   T   T
  0.7884501016013266  0.6709305763667940  0.5911273606618506   T   T   T
  0.9399892180062844  0.4564740072951115  0.6086474491044366   T   T   T
  0.8453573670669744  0.2422078316361879  0.6202047721985408   T   T   T
  0.7446615557366159  0.0287715828958827  0.6305975038538648   T   T   T
  0.5719850736071012  0.4112411348596045  0.6618880942594584   T   T   T
  0.5664549739029745  0.4307384791687258  0.7043902644528454   T   T   T
  0.9206621747835030  0.6264095853887732  0.6452489695633803   T   T   T
  0.9179049367913734  0.6518828205048880  0.6871227557623509   T   T   T
  0.3296843300938668  0.2346733331800142  0.6979313655532310   T   T   T
  0.3977319434017554  0.2731332539832541  0.7105555428697194   T   T   T
 
  0.00000000E+00  0.00000000E+00  0.00000000E+00
  0.00000000E+00  0.00000000E+00  0.00000000E+00
  0.00000000E+00  0.00000000E+00  0.00000000E+00
  0.00000000E+00  0.00000000E+00  0.00000000E+00
  0.00000000E+00  0.00000000E+00  0.00000000E+00
  0.00000000E+00  0.00000000E+00  0.00000000E+00
  0.00000000E+00  0.00000000E+00  0.00000000E+00
  0.00000000E+00  0.00000000E+00  0.00000000E+00
  0.00000000E+00  0.00000000E+00  0.00000000E+00
  0.00000000E+00  0.00000000E+00  0.00000000E+00
  0.00000000E+00  0.00000000E+00  0.00000000E+00
  0.00000000E+00  0.00000000E+00  0.00000000E+00
  0.00000000E+00  0.00000000E+00  0.00000000E+00
  0.00000000E+00  0.00000000E+00  0.00000000E+00
  0.00000000E+00  0.00000000E+00  0.00000000E+00
  0.00000000E+00  0.00000000E+00  0.00000000E+00
  0.00000000E+00  0.00000000E+00  0.00000000E+00
  0.00000000E+00  0.00000000E+00  0.00000000E+00
  0.00000000E+00  0.00000000E+00  0.00000000E+00
  0.00000000E+00  0.00000000E+00  0.00000000E+00
  0.00000000E+00  0.00000000E+00  0.00000000E+00
  0.00000000E+00  0.00000000E+00  0.00000000E+00
  0.00000000E+00  0.00000000E+00  0.00000000E+00
  0.00000000E+00  0.00000000E+00  0.00000000E+00
  0.00000000E+00  0.00000000E+00  0.00000000E+00
  0.00000000E+00  0.00000000E+00  0.00000000E+00
  0.00000000E+00  0.00000000E+00  0.00000000E+00
  0.00000000E+00  0.00000000E+00  0.00000000E+00
  0.00000000E+00  0.00000000E+00  0.00000000E+00
  0.00000000E+00  0.00000000E+00  0.00000000E+00
  0.00000000E+00  0.00000000E+00  0.00000000E+00
  0.00000000E+00  0.00000000E+00  0.00000000E+00
  0.00000000E+00  0.00000000E+00  0.00000000E+00
  0.00000000E+00  0.00000000E+00  0.00000000E+00
  0.00000000E+00  0.00000000E+00  0.00000000E+00
  0.00000000E+00  0.00000000E+00  0.00000000E+00
  0.00000000E+00  0.00000000E+00  0.00000000E+00
  0.00000000E+00  0.00000000E+00  0.00000000E+00
  0.00000000E+00  0.00000000E+00  0.00000000E+00
  0.00000000E+00  0.00000000E+00  0.00000000E+00
  0.00000000E+00  0.00000000E+00  0.00000000E+00
  0.00000000E+00  0.00000000E+00  0.00000000E+00
  0.00000000E+00  0.00000000E+00  0.00000000E+00
  0.00000000E+00  0.00000000E+00  0.00000000E+00
  0.00000000E+00  0.00000000E+00  0.00000000E+00
  0.00000000E+00  0.00000000E+00  0.00000000E+00
  0.00000000E+00  0.00000000E+00  0.00000000E+00
  0.00000000E+00  0.00000000E+00  0.00000000E+00
  0.00000000E+00  0.00000000E+00  0.00000000E+00
  0.00000000E+00  0.00000000E+00  0.00000000E+00
  0.00000000E+00  0.00000000E+00  0.00000000E+00
  0.00000000E+00  0.00000000E+00  0.00000000E+00
  0.00000000E+00  0.00000000E+00  0.00000000E+00
  0.00000000E+00  0.00000000E+00  0.00000000E+00
  0.00000000E+00  0.00000000E+00  0.00000000E+00
  0.00000000E+00  0.00000000E+00  0.00000000E+00
  0.00000000E+00  0.00000000E+00  0.00000000E+00
  0.00000000E+00  0.00000000E+00  0.00000000E+00
  0.00000000E+00  0.00000000E+00  0.00000000E+00
  0.00000000E+00  0.00000000E+00  0.00000000E+00
  0.00000000E+00  0.00000000E+00  0.00000000E+00
  0.00000000E+00  0.00000000E+00  0.00000000E+00
