Pt  C  O  C  O  H                       
    1.000000000000000     
    11.2213408561008308    0.0000000000000000    0.0000000000000000
     1.4026676070126025   10.7740943252779040    0.0000000000000000
     0.0000000000000000    0.0000000000000000   27.7475611781839042
   Pt   C    O    C    O    H 
    56     1     1     1     2     1
Selective dynamics
Direct
  0.0169491525423737  0.8644067796610173  0.3976208246282127   F   F   F
  0.1694915254237301  0.6440677966101660  0.4162352201503552   F   F   F
  0.0720338983050866  0.4237288135593218  0.4348496156724977   F   F   F
  0.2245762711864430  0.2033898305084776  0.4534640111946402   F   F   F
  0.1271481526123072  0.9900247806705857  0.4655461973621968   T   T   T
  0.0283226107382570  0.7719500123493390  0.4920603918769606   T   T   T
  0.1809777318070313  0.5500262197587601  0.5089344846870996   T   T   T
  0.0837132491510210  0.3296915057863739  0.5269296477307814   T   T   T
  0.2374861370346166  0.1038332504379522  0.5451392276362513   T   T   T
  0.1388533551146389  0.8830438461273630  0.5684764919771125   T   T   T
  0.0419149591450367  0.6690198519317675  0.5849585401067513   T   T   T
  0.1932400992187932  0.4581016545350121  0.6032664414152549   T   T   T
  0.0976220052128393  0.2442129047973617  0.6190846946666667   T   T   T
  0.9928530783113483  0.0305061338340472  0.6302906995858037   T   T   T
  0.2669491525423737  0.8644067796610173  0.3976208246282127   F   F   F
  0.4194915254237301  0.6440677966101660  0.4162352201503552   F   F   F
  0.3220338983050866  0.4237288135593218  0.4348496156724977   F   F   F
  0.4745762711864430  0.2033898305084776  0.4534640111946402   F   F   F
  0.3751793353543547  0.9896271748187714  0.4657071820310093   T   T   T
  0.2778752649980642  0.7721327287528551  0.4925042038453364   T   T   T
  0.4324365852509754  0.5481024260397165  0.5092715499423540   T   T   T
  0.3336793519604248  0.3296809925164044  0.5267504879474225   T   T   T
  0.4878057693800990  0.1032894405286715  0.5415418584705964   T   T   T
  0.3912563797203121  0.8821483775141316  0.5696243942059396   T   T   T
  0.2916126281032998  0.6684917045944978  0.5848912520227356   T   T   T
  0.4424816510106968  0.4561053746879663  0.6034276604298983   T   T   T
  0.3401260313465943  0.2450724029532084  0.6188961000604490   T   T   T
  0.2457662348883489  0.0239082323478797  0.6360636887451541   T   T   T
  0.5169491525423737  0.8644067796610173  0.3976208246282127   F   F   F
  0.6694915254237301  0.6440677966101660  0.4162352201503552   F   F   F
  0.5720338983050866  0.4237288135593218  0.4348496156724977   F   F   F
  0.7245762711864430  0.2033898305084776  0.4534640111946402   F   F   F
  0.6258172411275938  0.9884417372083176  0.4645382240508492   T   T   T
  0.5276857714390136  0.7711038436993877  0.4925140750931612   T   T   T
  0.6814185389992593  0.5453646787038533  0.5093502565742797   T   T   T
  0.5836383854370738  0.3263687671474851  0.5294445875038903   T   T   T
  0.7361534246632351  0.1016651538863641  0.5409702377132435   T   T   T
  0.6395655126768776  0.8807828407605048  0.5685181517593521   T   T   T
  0.5412978757069914  0.6666416822114540  0.5858791395953793   T   T   T
  0.6909777221287747  0.4547255857280616  0.6036418764597016   T   T   T
  0.5898126519761347  0.2489100798132426  0.6271414230071077   T   T   T
  0.4962336486808053  0.0285934937897842  0.6330453828992765   T   T   T
  0.7669491525423737  0.8644067796610173  0.3976208246282127   F   F   F
  0.9194915254237301  0.6440677966101660  0.4162352201503552   F   F   F
  0.8220338983050866  0.4237288135593218  0.4348496156724977   F   F   F
  0.9745762711864430  0.2033898305084776  0.4534640111946402   F   F   F
  0.8766461487251407  0.9886984219470947  0.4643114506873400   T   T   T
  0.7778469942554738  0.7709560731958037  0.4924132541280205   T   T   T
  0.9300555086157288  0.5481551233782260  0.5089029585828549   T   T   T
  0.8330072845792874  0.3257965874450906  0.5321384548063670   T   T   T
  0.9860606054836750  0.1047412461314841  0.5410148846033936   T   T   T
  0.8872830588221610  0.8820639746640482  0.5688312909727219   T   T   T
  0.7907302859464801  0.6666363794382091  0.5850507541557859   T   T   T
  0.9446510801526933  0.4596483081704419  0.6025621687679851   T   T   T
  0.8497931457709047  0.2549613318992442  0.6277800780401983   T   T   T
  0.7493962770100866  0.0336664918769801  0.6317218024150635   T   T   T
  0.6106833265481851  0.1132628734089855  0.6795563427194491   T   T   T
  0.6139863794863365  0.1078217031444444  0.7225688923791261   T   T   T
  0.2516352348749198  0.9646936016466048  0.6989103150374096   T   T   T
  0.2554572126619332  0.9261591549607431  0.7379516227734411   T   T   T
  0.8622343247083596  0.2407245727528440  0.6990666921196701   T   T   T
  0.9209273413506703  0.2954724467314692  0.7087875749049467   T   T   T
 
  0.00000000E+00  0.00000000E+00  0.00000000E+00
  0.00000000E+00  0.00000000E+00  0.00000000E+00
  0.00000000E+00  0.00000000E+00  0.00000000E+00
  0.00000000E+00  0.00000000E+00  0.00000000E+00
  0.00000000E+00  0.00000000E+00  0.00000000E+00
  0.00000000E+00  0.00000000E+00  0.00000000E+00
  0.00000000E+00  0.00000000E+00  0.00000000E+00
  0.00000000E+00  0.00000000E+00  0.00000000E+00
  0.00000000E+00  0.00000000E+00  0.00000000E+00
  0.00000000E+00  0.00000000E+00  0.00000000E+00
  0.00000000E+00  0.00000000E+00  0.00000000E+00
  0.00000000E+00  0.00000000E+00  0.00000000E+00
  0.00000000E+00  0.00000000E+00  0.00000000E+00
  0.00000000E+00  0.00000000E+00  0.00000000E+00
  0.00000000E+00  0.00000000E+00  0.00000000E+00
  0.00000000E+00  0.00000000E+00  0.00000000E+00
  0.00000000E+00  0.00000000E+00  0.00000000E+00
  0.00000000E+00  0.00000000E+00  0.00000000E+00
  0.00000000E+00  0.00000000E+00  0.00000000E+00
  0.00000000E+00  0.00000000E+00  0.00000000E+00
  0.00000000E+00  0.00000000E+00  0.00000000E+00
  0.00000000E+00  0.00000000E+00  0.00000000E+00
  0.00000000E+00  0.00000000E+00  0.00000000E+00
  0.00000000E+00  0.00000000E+00  0.00000000E+00
  0.00000000E+00  0.00000000E+00  0.00000000E+00
  0.00000000E+00  0.00000000E+00  0.00000000E+00
  0.00000000E+00  0.00000000E+00  0.00000000E+00
  0.00000000E+00  0.00000000E+00  0.00000000E+00
  0.00000000E+00  0.00000000E+00  0.00000000E+00
  0.00000000E+00  0.00000000E+00  0.00000000E+00
  0.00000000E+00  0.00000000E+00  0.00000000E+00
  0.00000000E+00  0.00000000E+00  0.00000000E+00
  0.00000000E+00  0.00000000E+00  0.00000000E+00
  0.00000000E+00  0.00000000E+00  0.00000000E+00
  0.00000000E+00  0.00000000E+00  0.00000000E+00
  0.00000000E+00  0.00000000E+00  0.00000000E+00
  0.00000000E+00  0.00000000E+00  0.00000000E+00
  0.00000000E+00  0.00000000E+00  0.00000000E+00
  0.00000000E+00  0.00000000E+00  0.00000000E+00
  0.00000000E+00  0.00000000E+00  0.00000000E+00
  0.00000000E+00  0.00000000E+00  0.00000000E+00
  0.00000000E+00  0.00000000E+00  0.00000000E+00
  0.00000000E+00  0.00000000E+00  0.00000000E+00
  0.00000000E+00  0.00000000E+00  0.00000000E+00
  0.00000000E+00  0.00000000E+00  0.00000000E+00
  0.00000000E+00  0.00000000E+00  0.00000000E+00
  0.00000000E+00  0.00000000E+00  0.00000000E+00
  0.00000000E+00  0.00000000E+00  0.00000000E+00
  0.00000000E+00  0.00000000E+00  0.00000000E+00
  0.00000000E+00  0.00000000E+00  0.00000000E+00
  0.00000000E+00  0.00000000E+00  0.00000000E+00
  0.00000000E+00  0.00000000E+00  0.00000000E+00
  0.00000000E+00  0.00000000E+00  0.00000000E+00
  0.00000000E+00  0.00000000E+00  0.00000000E+00
  0.00000000E+00  0.00000000E+00  0.00000000E+00
  0.00000000E+00  0.00000000E+00  0.00000000E+00
  0.00000000E+00  0.00000000E+00  0.00000000E+00
  0.00000000E+00  0.00000000E+00  0.00000000E+00
  0.00000000E+00  0.00000000E+00  0.00000000E+00
  0.00000000E+00  0.00000000E+00  0.00000000E+00
  0.00000000E+00  0.00000000E+00  0.00000000E+00
  0.00000000E+00  0.00000000E+00  0.00000000E+00
