Pt  C  O  C  O  H                       
    1.000000000000000     
    11.2213408561008308    0.0000000000000000    0.0000000000000000
     1.4026676070126025   10.7740943252779040    0.0000000000000000
     0.0000000000000000    0.0000000000000000   27.7475611781839042
   Pt   C    O    C    O    H 
    56     1     1     1     2     1
Selective dynamics
Direct
  0.0169491525423737  0.8644067796610173  0.3976208246282127   F   F   F
  0.1694915254237301  0.6440677966101660  0.4162352201503552   F   F   F
  0.0720338983050866  0.4237288135593218  0.4348496156724977   F   F   F
  0.2245762711864430  0.2033898305084776  0.4534640111946402   F   F   F
  0.1263742640737127  0.9884144684881652  0.4648616617840964   T   T   T
  0.0277011507091858  0.7723103138573318  0.4928215695176241   T   T   T
  0.1836528168269574  0.5510577349157914  0.5105212981770363   T   T   T
  0.0832790548891901  0.3309508047027391  0.5293654591471136   T   T   T
  0.2344705362405364  0.1082489010203397  0.5410427236778648   T   T   T
  0.1388039913842795  0.8862106051146766  0.5686183122027081   T   T   T
  0.0433804230768029  0.6705790398127869  0.5860314178486896   T   T   T
  0.1901716321648518  0.4582742512768001  0.6035078932470450   T   T   T
  0.0887654160060672  0.2533163946876539  0.6273488019621584   T   T   T
  0.9901241138618548  0.0352520092565597  0.6329098639168236   T   T   T
  0.2669491525423737  0.8644067796610173  0.3976208246282127   F   F   F
  0.4194915254237301  0.6440677966101660  0.4162352201503552   F   F   F
  0.3220338983050866  0.4237288135593218  0.4348496156724977   F   F   F
  0.4745762711864430  0.2033898305084776  0.4534640111946402   F   F   F
  0.3760568346822380  0.9887473683470722  0.4642967827914741   T   T   T
  0.2783761116134443  0.7719161202033545  0.4933614836859438   T   T   T
  0.4302477748098094  0.5529667273983836  0.5096914833630712   T   T   T
  0.3336643689640941  0.3303046021371791  0.5317368907146376   T   T   T
  0.4874068746929933  0.1080614020748769  0.5407953468814880   T   T   T
  0.3871840744644168  0.8916997295294197  0.5670740822242569   T   T   T
  0.2910485490088520  0.6753425063932013  0.5925812391971197   T   T   T
  0.4458486269959679  0.4602932223496699  0.6028882037020143   T   T   T
  0.3496352501362945  0.2569725645434142  0.6272573063361206   T   T   T
  0.2492174359578743  0.0381392979367300  0.6314097184705845   T   T   T
  0.5169491525423737  0.8644067796610173  0.3976208246282127   F   F   F
  0.6694915254237301  0.6440677966101660  0.4162352201503552   F   F   F
  0.5720338983050866  0.4237288135593218  0.4348496156724977   F   F   F
  0.7245762711864430  0.2033898305084776  0.4534640111946402   F   F   F
  0.6262375308410413  0.9892644691308893  0.4646760638002846   T   T   T
  0.5293577090131282  0.7736161538098366  0.4932600056835812   T   T   T
  0.6786596744782376  0.5543957900544612  0.5106108514455058   T   T   T
  0.5831574349874469  0.3338368688207056  0.5274091592607043   T   T   T
  0.7376968469749846  0.1071866216239813  0.5408241951440168   T   T   T
  0.6401018524203997  0.8866787203925839  0.5686897014636501   T   T   T
  0.5410887065084093  0.6765495675616119  0.5922633464050907   T   T   T
  0.6951016742325447  0.4632985022408088  0.6043808995638573   T   T   T
  0.5994564562916190  0.2513435639750700  0.6205705457248896   T   T   T
  0.4989922888339665  0.0364650581763019  0.6301485595071296   T   T   T
  0.7669491525423737  0.8644067796610173  0.3976208246282127   F   F   F
  0.9194915254237301  0.6440677966101660  0.4162352201503552   F   F   F
  0.8220338983050866  0.4237288135593218  0.4348496156724977   F   F   F
  0.9745762711864430  0.2033898305084776  0.4534640111946402   F   F   F
  0.8766012391433208  0.9892960939691782  0.4647017760502768   T   T   T
  0.7787348487237025  0.7734597733444822  0.4927084066640052   T   T   T
  0.9324086515415121  0.5499901172507740  0.5096276496288216   T   T   T
  0.8328582322343798  0.3343648825067296  0.5273482791944172   T   T   T
  0.9862370557687876  0.1063634359689246  0.5413230331323929   T   T   T
  0.8914286782262067  0.8844859807679575  0.5703229068398559   T   T   T
  0.7912226898808966  0.6724487193046721  0.5854766399658492   T   T   T
  0.9421523280459154  0.4615320640522117  0.6048428079941521   T   T   T
  0.8397229412984604  0.2520909227452107  0.6204254063178291   T   T   T
  0.7457464416198649  0.0350668101889575  0.6312194022240216   T   T   T
  0.4146967668530242  0.6872703197585370  0.6445516355630588   T   T   T
  0.4125300252305246  0.7078398325661271  0.6865053759038433   T   T   T
  0.1100020780454384  0.1155689311699740  0.6790402402368406   T   T   T
  0.1128386088991905  0.1089329200577813  0.7220471867123005   T   T   T
  0.3588955397228332  0.2449027550115905  0.6986874782614745   T   T   T
  0.4272673582208992  0.2872770000428725  0.7083364720021701   T   T   T
 
  0.00000000E+00  0.00000000E+00  0.00000000E+00
  0.00000000E+00  0.00000000E+00  0.00000000E+00
  0.00000000E+00  0.00000000E+00  0.00000000E+00
  0.00000000E+00  0.00000000E+00  0.00000000E+00
  0.00000000E+00  0.00000000E+00  0.00000000E+00
  0.00000000E+00  0.00000000E+00  0.00000000E+00
  0.00000000E+00  0.00000000E+00  0.00000000E+00
  0.00000000E+00  0.00000000E+00  0.00000000E+00
  0.00000000E+00  0.00000000E+00  0.00000000E+00
  0.00000000E+00  0.00000000E+00  0.00000000E+00
  0.00000000E+00  0.00000000E+00  0.00000000E+00
  0.00000000E+00  0.00000000E+00  0.00000000E+00
  0.00000000E+00  0.00000000E+00  0.00000000E+00
  0.00000000E+00  0.00000000E+00  0.00000000E+00
  0.00000000E+00  0.00000000E+00  0.00000000E+00
  0.00000000E+00  0.00000000E+00  0.00000000E+00
  0.00000000E+00  0.00000000E+00  0.00000000E+00
  0.00000000E+00  0.00000000E+00  0.00000000E+00
  0.00000000E+00  0.00000000E+00  0.00000000E+00
  0.00000000E+00  0.00000000E+00  0.00000000E+00
  0.00000000E+00  0.00000000E+00  0.00000000E+00
  0.00000000E+00  0.00000000E+00  0.00000000E+00
  0.00000000E+00  0.00000000E+00  0.00000000E+00
  0.00000000E+00  0.00000000E+00  0.00000000E+00
  0.00000000E+00  0.00000000E+00  0.00000000E+00
  0.00000000E+00  0.00000000E+00  0.00000000E+00
  0.00000000E+00  0.00000000E+00  0.00000000E+00
  0.00000000E+00  0.00000000E+00  0.00000000E+00
  0.00000000E+00  0.00000000E+00  0.00000000E+00
  0.00000000E+00  0.00000000E+00  0.00000000E+00
  0.00000000E+00  0.00000000E+00  0.00000000E+00
  0.00000000E+00  0.00000000E+00  0.00000000E+00
  0.00000000E+00  0.00000000E+00  0.00000000E+00
  0.00000000E+00  0.00000000E+00  0.00000000E+00
  0.00000000E+00  0.00000000E+00  0.00000000E+00
  0.00000000E+00  0.00000000E+00  0.00000000E+00
  0.00000000E+00  0.00000000E+00  0.00000000E+00
  0.00000000E+00  0.00000000E+00  0.00000000E+00
  0.00000000E+00  0.00000000E+00  0.00000000E+00
  0.00000000E+00  0.00000000E+00  0.00000000E+00
  0.00000000E+00  0.00000000E+00  0.00000000E+00
  0.00000000E+00  0.00000000E+00  0.00000000E+00
  0.00000000E+00  0.00000000E+00  0.00000000E+00
  0.00000000E+00  0.00000000E+00  0.00000000E+00
  0.00000000E+00  0.00000000E+00  0.00000000E+00
  0.00000000E+00  0.00000000E+00  0.00000000E+00
  0.00000000E+00  0.00000000E+00  0.00000000E+00
  0.00000000E+00  0.00000000E+00  0.00000000E+00
  0.00000000E+00  0.00000000E+00  0.00000000E+00
  0.00000000E+00  0.00000000E+00  0.00000000E+00
  0.00000000E+00  0.00000000E+00  0.00000000E+00
  0.00000000E+00  0.00000000E+00  0.00000000E+00
  0.00000000E+00  0.00000000E+00  0.00000000E+00
  0.00000000E+00  0.00000000E+00  0.00000000E+00
  0.00000000E+00  0.00000000E+00  0.00000000E+00
  0.00000000E+00  0.00000000E+00  0.00000000E+00
  0.00000000E+00  0.00000000E+00  0.00000000E+00
  0.00000000E+00  0.00000000E+00  0.00000000E+00
  0.00000000E+00  0.00000000E+00  0.00000000E+00
  0.00000000E+00  0.00000000E+00  0.00000000E+00
  0.00000000E+00  0.00000000E+00  0.00000000E+00
  0.00000000E+00  0.00000000E+00  0.00000000E+00
