Pt  C  O  C  O  H                       
    1.000000000000000     
    11.2213408561008308    0.0000000000000000    0.0000000000000000
     1.4026676070126025   10.7740943252779040    0.0000000000000000
     0.0000000000000000    0.0000000000000000   27.7475611781839042
   Pt   C    O    C    O    H 
    56     1     1     1     2     1
Selective dynamics
Direct
  0.0169491525423737  0.8644067796610173  0.3976208246282127   F   F   F
  0.1694915254237301  0.6440677966101660  0.4162352201503552   F   F   F
  0.0720338983050866  0.4237288135593218  0.4348496156724977   F   F   F
  0.2245762711864430  0.2033898305084776  0.4534640111946402   F   F   F
  0.1261368461642166  0.9871534935274763  0.4661412938959983   T   T   T
  0.0270238100514368  0.7700238632729925  0.4929701959057629   T   T   T
  0.1814543909163730  0.5492424534667478  0.5108451302655603   T   T   T
  0.0828666475356906  0.3237644805587504  0.5265802335945152   T   T   T
  0.2353512316546167  0.0953233523747759  0.5427070925134014   T   T   T
  0.1363922986392302  0.8765090354436696  0.5714912120256028   T   T   T
  0.0365508120347252  0.6575063641912924  0.5853587758203950   T   T   T
  0.1884777714017314  0.4424973587095910  0.6022260565444373   T   T   T
  0.0917030538515664  0.2275467099982268  0.6183816557345025   T   T   T
  0.9932498915658843  0.0138017936982791  0.6383180469722788   T   T   T
  0.2669491525423737  0.8644067796610173  0.3976208246282127   F   F   F
  0.4194915254237301  0.6440677966101660  0.4162352201503552   F   F   F
  0.3220338983050866  0.4237288135593218  0.4348496156724977   F   F   F
  0.4745762711864430  0.2033898305084776  0.4534640111946402   F   F   F
  0.3758470404293336  0.9878024860660941  0.4657241935563699   T   T   T
  0.2767772774517338  0.7697126307065782  0.4940671645073662   T   T   T
  0.4293638369914594  0.5481757870824733  0.5100841362978489   T   T   T
  0.3325933920914349  0.3256818314258800  0.5261880151912083   T   T   T
  0.4868002513948318  0.0944928811152244  0.5429293253112878   T   T   T
  0.3874661317781898  0.8758000201324729  0.5694121130286823   T   T   T
  0.2881360715442456  0.6597122451523171  0.5910252430226065   T   T   T
  0.4426336533768860  0.4421949749940511  0.6016499195756098   T   T   T
  0.3422178148611851  0.2295153521453360  0.6165518138028481   T   T   T
  0.2449316050917415  0.0146761478279994  0.6380135278140683   T   T   T
  0.5169491525423737  0.8644067796610173  0.3976208246282127   F   F   F
  0.6694915254237301  0.6440677966101660  0.4162352201503552   F   F   F
  0.5720338983050866  0.4237288135593218  0.4348496156724977   F   F   F
  0.7245762711864430  0.2033898305084776  0.4534640111946402   F   F   F
  0.6259406852816302  0.9875485116119846  0.4662860046773420   T   T   T
  0.5270876489141006  0.7701683281399294  0.4930107349180546   T   T   T
  0.6795501452917083  0.5458883068214884  0.5088793138827048   T   T   T
  0.5832829789446599  0.3227472506609197  0.5266626096297814   T   T   T
  0.7352094805698055  0.0945259146599141  0.5431674696877745   T   T   T
  0.6373899909957460  0.8750987356877457  0.5725770933409846   T   T   T
  0.5410908949095509  0.6575393747527023  0.5852446153566191   T   T   T
  0.6909252344596354  0.4442060063438024  0.6026945374874996   T   T   T
  0.5937279750261442  0.2273763471866485  0.6184826956419929   T   T   T
  0.4934757252191637  0.0145826392365447  0.6383037966148916   T   T   T
  0.7669491525423737  0.8644067796610173  0.3976208246282127   F   F   F
  0.9194915254237301  0.6440677966101660  0.4162352201503552   F   F   F
  0.8220338983050866  0.4237288135593218  0.4348496156724977   F   F   F
  0.9745762711864430  0.2033898305084776  0.4534640111946402   F   F   F
  0.8756172049524696  0.9883779695967985  0.4658471622754092   T   T   T
  0.7765548114361474  0.7702469147120816  0.4929838856267006   T   T   T
  0.9304679640782795  0.5461149885861298  0.5087966761601006   T   T   T
  0.8327950066570315  0.3244606419385686  0.5263335068605168   T   T   T
  0.9864828939993350  0.0940940731609131  0.5429042464409468   T   T   T
  0.8869539756726845  0.8745076985302743  0.5699144039078112   T   T   T
  0.7889043549948581  0.6579243743020770  0.5857401383451373   T   T   T
  0.9402703233086295  0.4436640613946226  0.6023110305555329   T   T   T
  0.8421521627881915  0.2297520938683470  0.6170021514127811   T   T   T
  0.7459314427350660  0.0143724406857827  0.6385277112932795   T   T   T
  0.3736096160589236  0.9820645781500483  0.6888034441577071   T   T   T
  0.3760238248315942  0.9554364149337851  0.7301530316742187   T   T   T
  0.8744097407779231  0.9733237808892242  0.6885160821136576   T   T   T
  0.8799911286305657  0.9385320330716277  0.7289430324653035   T   T   T
  0.2846319804391325  0.6968634253104645  0.6610307353436721   T   T   T
  0.3481016600052368  0.6384990007586823  0.6758192521024992   T   T   T
 
  0.00000000E+00  0.00000000E+00  0.00000000E+00
  0.00000000E+00  0.00000000E+00  0.00000000E+00
  0.00000000E+00  0.00000000E+00  0.00000000E+00
  0.00000000E+00  0.00000000E+00  0.00000000E+00
  0.00000000E+00  0.00000000E+00  0.00000000E+00
  0.00000000E+00  0.00000000E+00  0.00000000E+00
  0.00000000E+00  0.00000000E+00  0.00000000E+00
  0.00000000E+00  0.00000000E+00  0.00000000E+00
  0.00000000E+00  0.00000000E+00  0.00000000E+00
  0.00000000E+00  0.00000000E+00  0.00000000E+00
  0.00000000E+00  0.00000000E+00  0.00000000E+00
  0.00000000E+00  0.00000000E+00  0.00000000E+00
  0.00000000E+00  0.00000000E+00  0.00000000E+00
  0.00000000E+00  0.00000000E+00  0.00000000E+00
  0.00000000E+00  0.00000000E+00  0.00000000E+00
  0.00000000E+00  0.00000000E+00  0.00000000E+00
  0.00000000E+00  0.00000000E+00  0.00000000E+00
  0.00000000E+00  0.00000000E+00  0.00000000E+00
  0.00000000E+00  0.00000000E+00  0.00000000E+00
  0.00000000E+00  0.00000000E+00  0.00000000E+00
  0.00000000E+00  0.00000000E+00  0.00000000E+00
  0.00000000E+00  0.00000000E+00  0.00000000E+00
  0.00000000E+00  0.00000000E+00  0.00000000E+00
  0.00000000E+00  0.00000000E+00  0.00000000E+00
  0.00000000E+00  0.00000000E+00  0.00000000E+00
  0.00000000E+00  0.00000000E+00  0.00000000E+00
  0.00000000E+00  0.00000000E+00  0.00000000E+00
  0.00000000E+00  0.00000000E+00  0.00000000E+00
  0.00000000E+00  0.00000000E+00  0.00000000E+00
  0.00000000E+00  0.00000000E+00  0.00000000E+00
  0.00000000E+00  0.00000000E+00  0.00000000E+00
  0.00000000E+00  0.00000000E+00  0.00000000E+00
  0.00000000E+00  0.00000000E+00  0.00000000E+00
  0.00000000E+00  0.00000000E+00  0.00000000E+00
  0.00000000E+00  0.00000000E+00  0.00000000E+00
  0.00000000E+00  0.00000000E+00  0.00000000E+00
  0.00000000E+00  0.00000000E+00  0.00000000E+00
  0.00000000E+00  0.00000000E+00  0.00000000E+00
  0.00000000E+00  0.00000000E+00  0.00000000E+00
  0.00000000E+00  0.00000000E+00  0.00000000E+00
  0.00000000E+00  0.00000000E+00  0.00000000E+00
  0.00000000E+00  0.00000000E+00  0.00000000E+00
  0.00000000E+00  0.00000000E+00  0.00000000E+00
  0.00000000E+00  0.00000000E+00  0.00000000E+00
  0.00000000E+00  0.00000000E+00  0.00000000E+00
  0.00000000E+00  0.00000000E+00  0.00000000E+00
  0.00000000E+00  0.00000000E+00  0.00000000E+00
  0.00000000E+00  0.00000000E+00  0.00000000E+00
  0.00000000E+00  0.00000000E+00  0.00000000E+00
  0.00000000E+00  0.00000000E+00  0.00000000E+00
  0.00000000E+00  0.00000000E+00  0.00000000E+00
  0.00000000E+00  0.00000000E+00  0.00000000E+00
  0.00000000E+00  0.00000000E+00  0.00000000E+00
  0.00000000E+00  0.00000000E+00  0.00000000E+00
  0.00000000E+00  0.00000000E+00  0.00000000E+00
  0.00000000E+00  0.00000000E+00  0.00000000E+00
  0.00000000E+00  0.00000000E+00  0.00000000E+00
  0.00000000E+00  0.00000000E+00  0.00000000E+00
  0.00000000E+00  0.00000000E+00  0.00000000E+00
  0.00000000E+00  0.00000000E+00  0.00000000E+00
  0.00000000E+00  0.00000000E+00  0.00000000E+00
  0.00000000E+00  0.00000000E+00  0.00000000E+00
