Pt  C  O  C  O  H                       
    1.000000000000000     
    11.2213408561008308    0.0000000000000000    0.0000000000000000
     1.4026676070126025   10.7740943252779040    0.0000000000000000
     0.0000000000000000    0.0000000000000000   27.7475611781839042
   Pt   C    O    C    O    H 
    56     1     1     1     2     1
Selective dynamics
Direct
  0.0169491525423737  0.8644067796610173  0.3976208246282127   F   F   F
  0.1694915254237301  0.6440677966101660  0.4162352201503552   F   F   F
  0.0720338983050866  0.4237288135593218  0.4348496156724977   F   F   F
  0.2245762711864430  0.2033898305084776  0.4534640111946402   F   F   F
  0.1263358710530651  0.9886000153893192  0.4644805599299556   T   T   T
  0.0272418241264641  0.7731896369517083  0.4927804160143569   T   T   T
  0.1803077342345629  0.5461677381304236  0.5094950455390586   T   T   T
  0.0845501733675774  0.3263018672153148  0.5293472155502055   T   T   T
  0.2377912374902481  0.1050214548071246  0.5411091811909620   T   T   T
  0.1392818039148438  0.8821674307202187  0.5694011181721194   T   T   T
  0.0401259092791786  0.6692910457565935  0.5853682372173190   T   T   T
  0.1879440854296787  0.4576999913927835  0.6040315673442356   T   T   T
  0.0952803180756557  0.2502886137243860  0.6279679154104518   T   T   T
  0.0000882901711741  0.0303471507794961  0.6318564703835160   T   T   T
  0.2669491525423737  0.8644067796610173  0.3976208246282127   F   F   F
  0.4194915254237301  0.6440677966101660  0.4162352201503552   F   F   F
  0.3220338983050866  0.4237288135593218  0.4348496156724977   F   F   F
  0.4745762711864430  0.2033898305084776  0.4534640111946402   F   F   F
  0.3767069870756333  0.9888784626823036  0.4641641793802257   T   T   T
  0.2775160205176182  0.7698216740400216  0.4923246412670656   T   T   T
  0.4305767967496537  0.5459823961149117  0.5107848019410440   T   T   T
  0.3346151908146615  0.3288185955574994  0.5293890783772922   T   T   T
  0.4865047554795280  0.1048817694014757  0.5413674681411084   T   T   T
  0.3883998620677829  0.8802674684748937  0.5677440708694990   T   T   T
  0.2916630184088363  0.6651381845059856  0.5850396695486610   T   T   T
  0.4434276985035650  0.4594242999012162  0.6082468634303768   T   T   T
  0.3402958985859241  0.2475829278947771  0.6269066347348938   T   T   T
  0.2493545598042776  0.0309828776042608  0.6301717796455066   T   T   T
  0.5169491525423737  0.8644067796610173  0.3976208246282127   F   F   F
  0.6694915254237301  0.6440677966101660  0.4162352201503552   F   F   F
  0.5720338983050866  0.4237288135593218  0.4348496156724977   F   F   F
  0.7245762711864430  0.2033898305084776  0.4534640111946402   F   F   F
  0.6273566340560618  0.9906607236274108  0.4644946914471696   T   T   T
  0.5281305592121661  0.7701338812799006  0.4922148760701897   T   T   T
  0.6826327292006683  0.5471986710719671  0.5089535902128595   T   T   T
  0.5840222691969462  0.3289509299002553  0.5284192630040205   T   T   T
  0.7353732562113801  0.1060638510723131  0.5451050189295986   T   T   T
  0.6385803272840865  0.8833948313504106  0.5675851777752094   T   T   T
  0.5423417067871351  0.6661841083879424  0.5848518946643775   T   T   T
  0.6970844032082790  0.4562921880194905  0.6030206675924108   T   T   T
  0.5961244393009189  0.2432648654208074  0.6242669173106459   T   T   T
  0.4908748714498263  0.0269912965137285  0.6304670878599482   T   T   T
  0.7669491525423737  0.8644067796610173  0.3976208246282127   F   F   F
  0.9194915254237301  0.6440677966101660  0.4162352201503552   F   F   F
  0.8220338983050866  0.4237288135593218  0.4348496156724977   F   F   F
  0.9745762711864430  0.2033898305084776  0.4534640111946402   F   F   F
  0.8750270853125919  0.9904442891369302  0.4646523992905567   T   T   T
  0.7786648228062164  0.7722269197744327  0.4921751306113881   T   T   T
  0.9321467408518204  0.5475020566211861  0.5088633298364464   T   T   T
  0.8335715058419237  0.3256427932609164  0.5285350062799784   T   T   T
  0.9874281252009230  0.1033495942595328  0.5409680192465098   T   T   T
  0.8887536178246513  0.8859994734689146  0.5698243517919317   T   T   T
  0.7906423015742744  0.6698615968795772  0.5846681749071312   T   T   T
  0.9414402322668334  0.4578683944335243  0.6021136766667112   T   T   T
  0.8422160427419274  0.2448198219554083  0.6257319151273334   T   T   T
  0.7398495248151521  0.0244486494861719  0.6349457991791913   T   T   T
  0.4609655923575030  0.3405325501739627  0.6675047763775042   T   T   T
  0.4599377057659781  0.3594940131339173  0.7099585570324376   T   T   T
  0.9758583603761342  0.1916848591553720  0.6776002528537629   T   T   T
  0.9722146020708629  0.1968792912279644  0.7206267990321837   T   T   T
  0.7398185883232803  0.9495654944996387  0.6995368977466645   T   T   T
  0.8178287257800368  0.9532584594558485  0.7148395888290986   T   T   T
 
  0.00000000E+00  0.00000000E+00  0.00000000E+00
  0.00000000E+00  0.00000000E+00  0.00000000E+00
  0.00000000E+00  0.00000000E+00  0.00000000E+00
  0.00000000E+00  0.00000000E+00  0.00000000E+00
  0.00000000E+00  0.00000000E+00  0.00000000E+00
  0.00000000E+00  0.00000000E+00  0.00000000E+00
  0.00000000E+00  0.00000000E+00  0.00000000E+00
  0.00000000E+00  0.00000000E+00  0.00000000E+00
  0.00000000E+00  0.00000000E+00  0.00000000E+00
  0.00000000E+00  0.00000000E+00  0.00000000E+00
  0.00000000E+00  0.00000000E+00  0.00000000E+00
  0.00000000E+00  0.00000000E+00  0.00000000E+00
  0.00000000E+00  0.00000000E+00  0.00000000E+00
  0.00000000E+00  0.00000000E+00  0.00000000E+00
  0.00000000E+00  0.00000000E+00  0.00000000E+00
  0.00000000E+00  0.00000000E+00  0.00000000E+00
  0.00000000E+00  0.00000000E+00  0.00000000E+00
  0.00000000E+00  0.00000000E+00  0.00000000E+00
  0.00000000E+00  0.00000000E+00  0.00000000E+00
  0.00000000E+00  0.00000000E+00  0.00000000E+00
  0.00000000E+00  0.00000000E+00  0.00000000E+00
  0.00000000E+00  0.00000000E+00  0.00000000E+00
  0.00000000E+00  0.00000000E+00  0.00000000E+00
  0.00000000E+00  0.00000000E+00  0.00000000E+00
  0.00000000E+00  0.00000000E+00  0.00000000E+00
  0.00000000E+00  0.00000000E+00  0.00000000E+00
  0.00000000E+00  0.00000000E+00  0.00000000E+00
  0.00000000E+00  0.00000000E+00  0.00000000E+00
  0.00000000E+00  0.00000000E+00  0.00000000E+00
  0.00000000E+00  0.00000000E+00  0.00000000E+00
  0.00000000E+00  0.00000000E+00  0.00000000E+00
  0.00000000E+00  0.00000000E+00  0.00000000E+00
  0.00000000E+00  0.00000000E+00  0.00000000E+00
  0.00000000E+00  0.00000000E+00  0.00000000E+00
  0.00000000E+00  0.00000000E+00  0.00000000E+00
  0.00000000E+00  0.00000000E+00  0.00000000E+00
  0.00000000E+00  0.00000000E+00  0.00000000E+00
  0.00000000E+00  0.00000000E+00  0.00000000E+00
  0.00000000E+00  0.00000000E+00  0.00000000E+00
  0.00000000E+00  0.00000000E+00  0.00000000E+00
  0.00000000E+00  0.00000000E+00  0.00000000E+00
  0.00000000E+00  0.00000000E+00  0.00000000E+00
  0.00000000E+00  0.00000000E+00  0.00000000E+00
  0.00000000E+00  0.00000000E+00  0.00000000E+00
  0.00000000E+00  0.00000000E+00  0.00000000E+00
  0.00000000E+00  0.00000000E+00  0.00000000E+00
  0.00000000E+00  0.00000000E+00  0.00000000E+00
  0.00000000E+00  0.00000000E+00  0.00000000E+00
  0.00000000E+00  0.00000000E+00  0.00000000E+00
  0.00000000E+00  0.00000000E+00  0.00000000E+00
  0.00000000E+00  0.00000000E+00  0.00000000E+00
  0.00000000E+00  0.00000000E+00  0.00000000E+00
  0.00000000E+00  0.00000000E+00  0.00000000E+00
  0.00000000E+00  0.00000000E+00  0.00000000E+00
  0.00000000E+00  0.00000000E+00  0.00000000E+00
  0.00000000E+00  0.00000000E+00  0.00000000E+00
  0.00000000E+00  0.00000000E+00  0.00000000E+00
  0.00000000E+00  0.00000000E+00  0.00000000E+00
  0.00000000E+00  0.00000000E+00  0.00000000E+00
  0.00000000E+00  0.00000000E+00  0.00000000E+00
  0.00000000E+00  0.00000000E+00  0.00000000E+00
  0.00000000E+00  0.00000000E+00  0.00000000E+00
