Pt  C  O  C  O  H                       
    1.000000000000000     
    11.2213408561008308    0.0000000000000000    0.0000000000000000
     1.4026676070126025   10.7740943252779040    0.0000000000000000
     0.0000000000000000    0.0000000000000000   27.7475611781839042
   Pt   C    O    C    O    H 
    56     1     1     1     2     1
Selective dynamics
Direct
  0.0169491525423737  0.8644067796610173  0.3976208246282127   F   F   F
  0.1694915254237301  0.6440677966101660  0.4162352201503552   F   F   F
  0.0720338983050866  0.4237288135593218  0.4348496156724977   F   F   F
  0.2245762711864430  0.2033898305084776  0.4534640111946402   F   F   F
  0.1264359139741673  0.9885812025683165  0.4655416719390351   T   T   T
  0.0276756833680669  0.7717634625333837  0.4925472732921795   T   T   T
  0.1817251537707296  0.5492619719661572  0.5089219821450014   T   T   T
  0.0848607442080257  0.3282963400276914  0.5268002822876693   T   T   T
  0.2367950299816212  0.1006328684039917  0.5423196618482150   T   T   T
  0.1397393753444884  0.8815517624026785  0.5698719357856906   T   T   T
  0.0417972176561022  0.6648501279326107  0.5852789456430710   T   T   T
  0.1931820851847017  0.4537411143792762  0.6031999249436167   T   T   T
  0.0994568098696687  0.2395666885242949  0.6187692207881355   T   T   T
  0.9969308782384551  0.0278030253722462  0.6311545133837762   T   T   T
  0.2669491525423737  0.8644067796610173  0.3976208246282127   F   F   F
  0.4194915254237301  0.6440677966101660  0.4162352201503552   F   F   F
  0.3220338983050866  0.4237288135593218  0.4348496156724977   F   F   F
  0.4745762711864430  0.2033898305084776  0.4534640111946402   F   F   F
  0.3765692287620112  0.9883130248213569  0.4658251602024924   T   T   T
  0.2780042589287945  0.7719519364514632  0.4927588464956908   T   T   T
  0.4315763158718685  0.5509753087312630  0.5105617373828583   T   T   T
  0.3353280696867927  0.3310790612037745  0.5271490067278284   T   T   T
  0.4882271157358905  0.1008769523841232  0.5423172488340992   T   T   T
  0.3887023078826976  0.8804271597053180  0.5693604349395460   T   T   T
  0.2875875713152050  0.6669246524083329  0.5857680930323322   T   T   T
  0.4394298583446298  0.4553499948355584  0.6080349666306389   T   T   T
  0.3441644920801294  0.2398770428628119  0.6180230422132187   T   T   T
  0.2459751983243729  0.0223839603824951  0.6370716380423235   T   T   T
  0.5169491525423737  0.8644067796610173  0.3976208246282127   F   F   F
  0.6694915254237301  0.6440677966101660  0.4162352201503552   F   F   F
  0.5720338983050866  0.4237288135593218  0.4348496156724977   F   F   F
  0.7245762711864430  0.2033898305084776  0.4534640111946402   F   F   F
  0.6257166587031994  0.9881239405449783  0.4649911405672866   T   T   T
  0.5283686391285051  0.7704622379326841  0.4939666429764941   T   T   T
  0.6802292189833498  0.5496360432845233  0.5102549683917333   T   T   T
  0.5827863991044372  0.3316354730235282  0.5278472472317798   T   T   T
  0.7361471636647555  0.1036309246327046  0.5412388834440462   T   T   T
  0.6381833349324477  0.8802055072744808  0.5702888912608550   T   T   T
  0.5389985590619105  0.6704709829223464  0.5911406329975110   T   T   T
  0.6923439193294525  0.4555835436592688  0.6074806905046014   T   T   T
  0.5895751483466041  0.2361180320780496  0.6182299197952056   T   T   T
  0.4951510132284200  0.0212827301488763  0.6370760305864253   T   T   T
  0.7669491525423737  0.8644067796610173  0.3976208246282127   F   F   F
  0.9194915254237301  0.6440677966101660  0.4162352201503552   F   F   F
  0.8220338983050866  0.4237288135593218  0.4348496156724977   F   F   F
  0.9745762711864430  0.2033898305084776  0.4534640111946402   F   F   F
  0.8762088259078636  0.9881915703448740  0.4652074792195706   T   T   T
  0.7776600856771060  0.7718118348835689  0.4924855069950523   T   T   T
  0.9311299792778372  0.5482639485864499  0.5084799718016367   T   T   T
  0.8317787016799262  0.3301660397261933  0.5308328941079054   T   T   T
  0.9849828361839329  0.1054607852875528  0.5416011894176247   T   T   T
  0.8899377733130418  0.8809949750960406  0.5692996725791369   T   T   T
  0.7938760464789554  0.6669418538901234  0.5845999074066794   T   T   T
  0.9435141752311345  0.4538763324371473  0.6018773869073757   T   T   T
  0.8447524440765768  0.2456030274713080  0.6248248140496683   T   T   T
  0.7455921160038581  0.0272171612220344  0.6308488472501342   T   T   T
  0.3752166794832756  0.9858105005481796  0.6873793412246284   T   T   T
  0.3787325685757392  0.9551401827371565  0.7283348423615467   T   T   T
  0.5556871760919090  0.5506291910006820  0.6503543917808372   T   T   T
  0.5533115762788926  0.5701906390641082  0.6927608749723250   T   T   T
  0.8459485625398662  0.2444893863108538  0.6964050216912689   T   T   T
  0.9146840651520693  0.2863022320809329  0.7060142473910712   T   T   T
 
  0.00000000E+00  0.00000000E+00  0.00000000E+00
  0.00000000E+00  0.00000000E+00  0.00000000E+00
  0.00000000E+00  0.00000000E+00  0.00000000E+00
  0.00000000E+00  0.00000000E+00  0.00000000E+00
  0.00000000E+00  0.00000000E+00  0.00000000E+00
  0.00000000E+00  0.00000000E+00  0.00000000E+00
  0.00000000E+00  0.00000000E+00  0.00000000E+00
  0.00000000E+00  0.00000000E+00  0.00000000E+00
  0.00000000E+00  0.00000000E+00  0.00000000E+00
  0.00000000E+00  0.00000000E+00  0.00000000E+00
  0.00000000E+00  0.00000000E+00  0.00000000E+00
  0.00000000E+00  0.00000000E+00  0.00000000E+00
  0.00000000E+00  0.00000000E+00  0.00000000E+00
  0.00000000E+00  0.00000000E+00  0.00000000E+00
  0.00000000E+00  0.00000000E+00  0.00000000E+00
  0.00000000E+00  0.00000000E+00  0.00000000E+00
  0.00000000E+00  0.00000000E+00  0.00000000E+00
  0.00000000E+00  0.00000000E+00  0.00000000E+00
  0.00000000E+00  0.00000000E+00  0.00000000E+00
  0.00000000E+00  0.00000000E+00  0.00000000E+00
  0.00000000E+00  0.00000000E+00  0.00000000E+00
  0.00000000E+00  0.00000000E+00  0.00000000E+00
  0.00000000E+00  0.00000000E+00  0.00000000E+00
  0.00000000E+00  0.00000000E+00  0.00000000E+00
  0.00000000E+00  0.00000000E+00  0.00000000E+00
  0.00000000E+00  0.00000000E+00  0.00000000E+00
  0.00000000E+00  0.00000000E+00  0.00000000E+00
  0.00000000E+00  0.00000000E+00  0.00000000E+00
  0.00000000E+00  0.00000000E+00  0.00000000E+00
  0.00000000E+00  0.00000000E+00  0.00000000E+00
  0.00000000E+00  0.00000000E+00  0.00000000E+00
  0.00000000E+00  0.00000000E+00  0.00000000E+00
  0.00000000E+00  0.00000000E+00  0.00000000E+00
  0.00000000E+00  0.00000000E+00  0.00000000E+00
  0.00000000E+00  0.00000000E+00  0.00000000E+00
  0.00000000E+00  0.00000000E+00  0.00000000E+00
  0.00000000E+00  0.00000000E+00  0.00000000E+00
  0.00000000E+00  0.00000000E+00  0.00000000E+00
  0.00000000E+00  0.00000000E+00  0.00000000E+00
  0.00000000E+00  0.00000000E+00  0.00000000E+00
  0.00000000E+00  0.00000000E+00  0.00000000E+00
  0.00000000E+00  0.00000000E+00  0.00000000E+00
  0.00000000E+00  0.00000000E+00  0.00000000E+00
  0.00000000E+00  0.00000000E+00  0.00000000E+00
  0.00000000E+00  0.00000000E+00  0.00000000E+00
  0.00000000E+00  0.00000000E+00  0.00000000E+00
  0.00000000E+00  0.00000000E+00  0.00000000E+00
  0.00000000E+00  0.00000000E+00  0.00000000E+00
  0.00000000E+00  0.00000000E+00  0.00000000E+00
  0.00000000E+00  0.00000000E+00  0.00000000E+00
  0.00000000E+00  0.00000000E+00  0.00000000E+00
  0.00000000E+00  0.00000000E+00  0.00000000E+00
  0.00000000E+00  0.00000000E+00  0.00000000E+00
  0.00000000E+00  0.00000000E+00  0.00000000E+00
  0.00000000E+00  0.00000000E+00  0.00000000E+00
  0.00000000E+00  0.00000000E+00  0.00000000E+00
  0.00000000E+00  0.00000000E+00  0.00000000E+00
  0.00000000E+00  0.00000000E+00  0.00000000E+00
  0.00000000E+00  0.00000000E+00  0.00000000E+00
  0.00000000E+00  0.00000000E+00  0.00000000E+00
  0.00000000E+00  0.00000000E+00  0.00000000E+00
  0.00000000E+00  0.00000000E+00  0.00000000E+00
