Pt  C  O  C  O  H                       
    1.000000000000000     
    11.2213408561008308    0.0000000000000000    0.0000000000000000
     1.4026676070126025   10.7740943252779040    0.0000000000000000
     0.0000000000000000    0.0000000000000000   27.7475611781839042
   Pt   C    O    C    O    H 
    56     1     1     1     2     1
Selective dynamics
Direct
  0.0169491525423737  0.8644067796610173  0.3976208246282127   F   F   F
  0.1694915254237301  0.6440677966101660  0.4162352201503552   F   F   F
  0.0720338983050866  0.4237288135593218  0.4348496156724977   F   F   F
  0.2245762711864430  0.2033898305084776  0.4534640111946402   F   F   F
  0.1268144175894297  0.9872253589618525  0.4650696797406718   T   T   T
  0.0278877300601303  0.7718789922503316  0.4927652980621355   T   T   T
  0.1827851045163026  0.5536809287289021  0.5106899269711294   T   T   T
  0.0832810763439301  0.3321754748608416  0.5267125995234285   T   T   T
  0.2345560293089410  0.1033545070028232  0.5404038870736897   T   T   T
  0.1391257701007009  0.8795805676320978  0.5691517592434968   T   T   T
  0.0425796802070812  0.6655477882915859  0.5864117316893953   T   T   T
  0.1890621935493825  0.4535475677416469  0.6024193888581384   T   T   T
  0.0926286331277544  0.2429640625750089  0.6196789818006679   T   T   T
  0.9964214538317238  0.0291650336694367  0.6314203451690442   T   T   T
  0.2669491525423737  0.8644067796610173  0.3976208246282127   F   F   F
  0.4194915254237301  0.6440677966101660  0.4162352201503552   F   F   F
  0.3220338983050866  0.4237288135593218  0.4348496156724977   F   F   F
  0.4745762711864430  0.2033898305084776  0.4534640111946402   F   F   F
  0.3777042723352587  0.9882235346980237  0.4656656539442655   T   T   T
  0.2782308480094907  0.7711143031758685  0.4928166997912645   T   T   T
  0.4310460759655483  0.5528837893529424  0.5117834992846912   T   T   T
  0.3337234516641426  0.3320572599628350  0.5266108187477805   T   T   T
  0.4880596878810475  0.1033286586323440  0.5448731891775308   T   T   T
  0.3894903448131409  0.8868702872823377  0.5677696232759606   T   T   T
  0.2920865283650732  0.6678223677465838  0.5918330409749019   T   T   T
  0.4456365980482973  0.4455074907799791  0.6062224237349900   T   T   T
  0.3402076448195594  0.2370101866587288  0.6164256378460659   T   T   T
  0.2401412104849056  0.0271111407233439  0.6310817913142834   T   T   T
  0.5169491525423737  0.8644067796610173  0.3976208246282127   F   F   F
  0.6694915254237301  0.6440677966101660  0.4162352201503552   F   F   F
  0.5720338983050866  0.4237288135593218  0.4348496156724977   F   F   F
  0.7245762711864430  0.2033898305084776  0.4534640111946402   F   F   F
  0.6253593679609779  0.9882042529992793  0.4660532358518212   T   T   T
  0.5282832395491880  0.7720946152002010  0.4935454470332001   T   T   T
  0.6784659664972251  0.5544803067705727  0.5108985211492686   T   T   T
  0.5835282592240567  0.3322932870457872  0.5268343728603779   T   T   T
  0.7396413015998549  0.1022379010844213  0.5407617643626669   T   T   T
  0.6406018096858322  0.8816516416306579  0.5697682740596400   T   T   T
  0.5407856045322721  0.6687504069583801  0.5932355838949315   T   T   T
  0.6982775072051487  0.4545129301981409  0.6030816650073124   T   T   T
  0.6021662202307928  0.2378475740914936  0.6170102448333051   T   T   T
  0.4986062587995547  0.0266184217656636  0.6365226040125052   T   T   T
  0.7669491525423737  0.8644067796610173  0.3976208246282127   F   F   F
  0.9194915254237301  0.6440677966101660  0.4162352201503552   F   F   F
  0.8220338983050866  0.4237288135593218  0.4348496156724977   F   F   F
  0.9745762711864430  0.2033898305084776  0.4534640111946402   F   F   F
  0.8761764577094604  0.9878231425212373  0.4650481493766043   T   T   T
  0.7788531526662503  0.7724203097357204  0.4927312503888961   T   T   T
  0.9304181958795832  0.5507965689900979  0.5097078519237498   T   T   T
  0.8332878895186452  0.3321355659125976  0.5269050763286390   T   T   T
  0.9866694010536462  0.1030807919714175  0.5406764543536994   T   T   T
  0.8910373641650109  0.8775716680746349  0.5703736372784042   T   T   T
  0.7901787396620843  0.6669687970587618  0.5868574376433892   T   T   T
  0.9430428837668015  0.4558565215004455  0.6045710491489247   T   T   T
  0.8470773785815845  0.2430826322526939  0.6197419298561090   T   T   T
  0.7540286912430124  0.0268099653765758  0.6316702840229854   T   T   T
  0.4093071944734967  0.7062089529365766  0.6426837641980498   T   T   T
  0.4042435752330941  0.7345463009006669  0.6839216990872488   T   T   T
  0.5093115452689346  0.9847977363843005  0.7013674175135161   T   T   T
  0.5179716803046752  0.9606759492851638  0.7420421061788524   T   T   T
  0.4428930753522017  0.4487281937665326  0.6780702478841477   T   T   T
  0.5175883821718038  0.4787760939188911  0.6883508068749151   T   T   T
 
  0.00000000E+00  0.00000000E+00  0.00000000E+00
  0.00000000E+00  0.00000000E+00  0.00000000E+00
  0.00000000E+00  0.00000000E+00  0.00000000E+00
  0.00000000E+00  0.00000000E+00  0.00000000E+00
  0.00000000E+00  0.00000000E+00  0.00000000E+00
  0.00000000E+00  0.00000000E+00  0.00000000E+00
  0.00000000E+00  0.00000000E+00  0.00000000E+00
  0.00000000E+00  0.00000000E+00  0.00000000E+00
  0.00000000E+00  0.00000000E+00  0.00000000E+00
  0.00000000E+00  0.00000000E+00  0.00000000E+00
  0.00000000E+00  0.00000000E+00  0.00000000E+00
  0.00000000E+00  0.00000000E+00  0.00000000E+00
  0.00000000E+00  0.00000000E+00  0.00000000E+00
  0.00000000E+00  0.00000000E+00  0.00000000E+00
  0.00000000E+00  0.00000000E+00  0.00000000E+00
  0.00000000E+00  0.00000000E+00  0.00000000E+00
  0.00000000E+00  0.00000000E+00  0.00000000E+00
  0.00000000E+00  0.00000000E+00  0.00000000E+00
  0.00000000E+00  0.00000000E+00  0.00000000E+00
  0.00000000E+00  0.00000000E+00  0.00000000E+00
  0.00000000E+00  0.00000000E+00  0.00000000E+00
  0.00000000E+00  0.00000000E+00  0.00000000E+00
  0.00000000E+00  0.00000000E+00  0.00000000E+00
  0.00000000E+00  0.00000000E+00  0.00000000E+00
  0.00000000E+00  0.00000000E+00  0.00000000E+00
  0.00000000E+00  0.00000000E+00  0.00000000E+00
  0.00000000E+00  0.00000000E+00  0.00000000E+00
  0.00000000E+00  0.00000000E+00  0.00000000E+00
  0.00000000E+00  0.00000000E+00  0.00000000E+00
  0.00000000E+00  0.00000000E+00  0.00000000E+00
  0.00000000E+00  0.00000000E+00  0.00000000E+00
  0.00000000E+00  0.00000000E+00  0.00000000E+00
  0.00000000E+00  0.00000000E+00  0.00000000E+00
  0.00000000E+00  0.00000000E+00  0.00000000E+00
  0.00000000E+00  0.00000000E+00  0.00000000E+00
  0.00000000E+00  0.00000000E+00  0.00000000E+00
  0.00000000E+00  0.00000000E+00  0.00000000E+00
  0.00000000E+00  0.00000000E+00  0.00000000E+00
  0.00000000E+00  0.00000000E+00  0.00000000E+00
  0.00000000E+00  0.00000000E+00  0.00000000E+00
  0.00000000E+00  0.00000000E+00  0.00000000E+00
  0.00000000E+00  0.00000000E+00  0.00000000E+00
  0.00000000E+00  0.00000000E+00  0.00000000E+00
  0.00000000E+00  0.00000000E+00  0.00000000E+00
  0.00000000E+00  0.00000000E+00  0.00000000E+00
  0.00000000E+00  0.00000000E+00  0.00000000E+00
  0.00000000E+00  0.00000000E+00  0.00000000E+00
  0.00000000E+00  0.00000000E+00  0.00000000E+00
  0.00000000E+00  0.00000000E+00  0.00000000E+00
  0.00000000E+00  0.00000000E+00  0.00000000E+00
  0.00000000E+00  0.00000000E+00  0.00000000E+00
  0.00000000E+00  0.00000000E+00  0.00000000E+00
  0.00000000E+00  0.00000000E+00  0.00000000E+00
  0.00000000E+00  0.00000000E+00  0.00000000E+00
  0.00000000E+00  0.00000000E+00  0.00000000E+00
  0.00000000E+00  0.00000000E+00  0.00000000E+00
  0.00000000E+00  0.00000000E+00  0.00000000E+00
  0.00000000E+00  0.00000000E+00  0.00000000E+00
  0.00000000E+00  0.00000000E+00  0.00000000E+00
  0.00000000E+00  0.00000000E+00  0.00000000E+00
  0.00000000E+00  0.00000000E+00  0.00000000E+00
  0.00000000E+00  0.00000000E+00  0.00000000E+00
