Pt  C  O  C  O  H                       
    1.000000000000000     
    11.2213408561008308    0.0000000000000000    0.0000000000000000
     1.4026676070126025   10.7740943252779040    0.0000000000000000
     0.0000000000000000    0.0000000000000000   27.7475611781839042
   Pt   C    O    C    O    H 
    56     1     1     1     2     1
Selective dynamics
Direct
  0.0169491525423737  0.8644067796610173  0.3976208246282127   F   F   F
  0.1694915254237301  0.6440677966101660  0.4162352201503552   F   F   F
  0.0720338983050866  0.4237288135593218  0.4348496156724977   F   F   F
  0.2245762711864430  0.2033898305084776  0.4534640111946402   F   F   F
  0.1268060645663210  0.9883343599386851  0.4646626350613148   T   T   T
  0.0271771539526515  0.7718134471463785  0.4921833865938166   T   T   T
  0.1818876339311325  0.5489416511925328  0.5085477463413346   T   T   T
  0.0839017518411876  0.3314021922153604  0.5276108587010464   T   T   T
  0.2370328307411922  0.1033308989346279  0.5407766368660391   T   T   T
  0.1378747522576662  0.8811522400367916  0.5683788188563849   T   T   T
  0.0416163006064218  0.6652736279992174  0.5840347792185558   T   T   T
  0.1936673163339990  0.4534326183258819  0.6025501361746409   T   T   T
  0.0958268388771046  0.2407828767347253  0.6189442287483137   T   T   T
  0.9954183664203439  0.0287924790736663  0.6312639574664209   T   T   T
  0.2669491525423737  0.8644067796610173  0.3976208246282127   F   F   F
  0.4194915254237301  0.6440677966101660  0.4162352201503552   F   F   F
  0.3220338983050866  0.4237288135593218  0.4348496156724977   F   F   F
  0.4745762711864430  0.2033898305084776  0.4534640111946402   F   F   F
  0.3778855680385303  0.9881403848355853  0.4660468182300380   T   T   T
  0.2778275535263555  0.7712074260108667  0.4922177206686581   T   T   T
  0.4313778042524773  0.5508978275375916  0.5103082229382843   T   T   T
  0.3361423434971004  0.3304359637582299  0.5280811748971094   T   T   T
  0.4870566779998107  0.1013296681317017  0.5456734886751426   T   T   T
  0.3882134635152080  0.8814569657844360  0.5697785489491600   T   T   T
  0.2870487808767268  0.6676424207061846  0.5848005428970214   T   T   T
  0.4399731645846564  0.4558393666510507  0.6094849483930661   T   T   T
  0.3445081632063963  0.2403368357322384  0.6195700081513235   T   T   T
  0.2400382659982891  0.0268199524606899  0.6313784312771938   T   T   T
  0.5169491525423737  0.8644067796610173  0.3976208246282127   F   F   F
  0.6694915254237301  0.6440677966101660  0.4162352201503552   F   F   F
  0.5720338983050866  0.4237288135593218  0.4348496156724977   F   F   F
  0.7245762711864430  0.2033898305084776  0.4534640111946402   F   F   F
  0.6249884000807168  0.9879099526266514  0.4662429030362628   T   T   T
  0.5276586085942706  0.7707357217664478  0.4944656925966012   T   T   T
  0.6780772468724993  0.5523176906297969  0.5097323733204568   T   T   T
  0.5822549832915188  0.3294219380104842  0.5272055376861391   T   T   T
  0.7374334313805568  0.1020900039338630  0.5407136817875536   T   T   T
  0.6381244778073999  0.8793769629474772  0.5703824024476999   T   T   T
  0.5385950752285016  0.6699359434994416  0.5936579837725663   T   T   T
  0.6944999741139130  0.4508785967455186  0.6013443094370323   T   T   T
  0.5942615187644422  0.2385723511496330  0.6186903235271451   T   T   T
  0.4955635320633279  0.0225358524721812  0.6369801395952074   T   T   T
  0.7669491525423737  0.8644067796610173  0.3976208246282127   F   F   F
  0.9194915254237301  0.6440677966101660  0.4162352201503552   F   F   F
  0.8220338983050866  0.4237288135593218  0.4348496156724977   F   F   F
  0.9745762711864430  0.2033898305084776  0.4534640111946402   F   F   F
  0.8760908631782004  0.9882970204297010  0.4648442962655583   T   T   T
  0.7778059742451320  0.7719723458451563  0.4922305458961120   T   T   T
  0.9297475214006341  0.5483936569224273  0.5106381220621946   T   T   T
  0.8333512390989026  0.3314514499777922  0.5272919470440736   T   T   T
  0.9872530906590045  0.1029304288085926  0.5405613816788027   T   T   T
  0.8887573942396303  0.8789842686517160  0.5694019452465592   T   T   T
  0.7895963665523537  0.6658513494633688  0.5849500890045048   T   T   T
  0.9431311601507129  0.4554398551805283  0.6075221802596711   T   T   T
  0.8429937905084158  0.2399714043880562  0.6186095448948663   T   T   T
  0.7510218097345426  0.0260425576153381  0.6314316922559111   T   T   T
  0.4918873097617526  0.5855317006170560  0.6539002145327067   T   T   T
  0.4901161569472552  0.6049315770481445  0.6958719866709658   T   T   T
  0.5025906147635518  0.9672139285046423  0.7003162266579042   T   T   T
  0.5074787541992011  0.9315157502856378  0.7397408403657949   T   T   T
  0.9349592002899330  0.4887688698328114  0.6777090119945365   T   T   T
  0.0174831072737327  0.4960597368257558  0.6878578436493742   T   T   T
 
  0.00000000E+00  0.00000000E+00  0.00000000E+00
  0.00000000E+00  0.00000000E+00  0.00000000E+00
  0.00000000E+00  0.00000000E+00  0.00000000E+00
  0.00000000E+00  0.00000000E+00  0.00000000E+00
  0.00000000E+00  0.00000000E+00  0.00000000E+00
  0.00000000E+00  0.00000000E+00  0.00000000E+00
  0.00000000E+00  0.00000000E+00  0.00000000E+00
  0.00000000E+00  0.00000000E+00  0.00000000E+00
  0.00000000E+00  0.00000000E+00  0.00000000E+00
  0.00000000E+00  0.00000000E+00  0.00000000E+00
  0.00000000E+00  0.00000000E+00  0.00000000E+00
  0.00000000E+00  0.00000000E+00  0.00000000E+00
  0.00000000E+00  0.00000000E+00  0.00000000E+00
  0.00000000E+00  0.00000000E+00  0.00000000E+00
  0.00000000E+00  0.00000000E+00  0.00000000E+00
  0.00000000E+00  0.00000000E+00  0.00000000E+00
  0.00000000E+00  0.00000000E+00  0.00000000E+00
  0.00000000E+00  0.00000000E+00  0.00000000E+00
  0.00000000E+00  0.00000000E+00  0.00000000E+00
  0.00000000E+00  0.00000000E+00  0.00000000E+00
  0.00000000E+00  0.00000000E+00  0.00000000E+00
  0.00000000E+00  0.00000000E+00  0.00000000E+00
  0.00000000E+00  0.00000000E+00  0.00000000E+00
  0.00000000E+00  0.00000000E+00  0.00000000E+00
  0.00000000E+00  0.00000000E+00  0.00000000E+00
  0.00000000E+00  0.00000000E+00  0.00000000E+00
  0.00000000E+00  0.00000000E+00  0.00000000E+00
  0.00000000E+00  0.00000000E+00  0.00000000E+00
  0.00000000E+00  0.00000000E+00  0.00000000E+00
  0.00000000E+00  0.00000000E+00  0.00000000E+00
  0.00000000E+00  0.00000000E+00  0.00000000E+00
  0.00000000E+00  0.00000000E+00  0.00000000E+00
  0.00000000E+00  0.00000000E+00  0.00000000E+00
  0.00000000E+00  0.00000000E+00  0.00000000E+00
  0.00000000E+00  0.00000000E+00  0.00000000E+00
  0.00000000E+00  0.00000000E+00  0.00000000E+00
  0.00000000E+00  0.00000000E+00  0.00000000E+00
  0.00000000E+00  0.00000000E+00  0.00000000E+00
  0.00000000E+00  0.00000000E+00  0.00000000E+00
  0.00000000E+00  0.00000000E+00  0.00000000E+00
  0.00000000E+00  0.00000000E+00  0.00000000E+00
  0.00000000E+00  0.00000000E+00  0.00000000E+00
  0.00000000E+00  0.00000000E+00  0.00000000E+00
  0.00000000E+00  0.00000000E+00  0.00000000E+00
  0.00000000E+00  0.00000000E+00  0.00000000E+00
  0.00000000E+00  0.00000000E+00  0.00000000E+00
  0.00000000E+00  0.00000000E+00  0.00000000E+00
  0.00000000E+00  0.00000000E+00  0.00000000E+00
  0.00000000E+00  0.00000000E+00  0.00000000E+00
  0.00000000E+00  0.00000000E+00  0.00000000E+00
  0.00000000E+00  0.00000000E+00  0.00000000E+00
  0.00000000E+00  0.00000000E+00  0.00000000E+00
  0.00000000E+00  0.00000000E+00  0.00000000E+00
  0.00000000E+00  0.00000000E+00  0.00000000E+00
  0.00000000E+00  0.00000000E+00  0.00000000E+00
  0.00000000E+00  0.00000000E+00  0.00000000E+00
  0.00000000E+00  0.00000000E+00  0.00000000E+00
  0.00000000E+00  0.00000000E+00  0.00000000E+00
  0.00000000E+00  0.00000000E+00  0.00000000E+00
  0.00000000E+00  0.00000000E+00  0.00000000E+00
  0.00000000E+00  0.00000000E+00  0.00000000E+00
  0.00000000E+00  0.00000000E+00  0.00000000E+00
