Pt  C  O  C  O  H                       
    1.000000000000000     
    11.2213408561008308    0.0000000000000000    0.0000000000000000
     1.4026676070126025   10.7740943252779040    0.0000000000000000
     0.0000000000000000    0.0000000000000000   27.7475611781839042
   Pt   C    O    C    O    H 
    56     1     1     1     2     1
Selective dynamics
Direct
  0.0169491525423737  0.8644067796610173  0.3976208246282127   F   F   F
  0.1694915254237301  0.6440677966101660  0.4162352201503552   F   F   F
  0.0720338983050866  0.4237288135593218  0.4348496156724977   F   F   F
  0.2245762711864430  0.2033898305084776  0.4534640111946402   F   F   F
  0.1267101792811134  0.9876853725636158  0.4652053787133272   T   T   T
  0.0277061709048776  0.7704740145165192  0.4922589138136574   T   T   T
  0.1803030421642556  0.5466238240175815  0.5110408148636125   T   T   T
  0.0837647121870263  0.3283287727790712  0.5303331260491441   T   T   T
  0.2372729399757956  0.1027924860448419  0.5412701264798168   T   T   T
  0.1392433110291453  0.8802026421282515  0.5682506754257537   T   T   T
  0.0402030493460396  0.6648857014017402  0.5848531200944233   T   T   T
  0.1926485814908421  0.4553631831740971  0.6086858693778222   T   T   T
  0.0933531217383326  0.2414172816750045  0.6257493275355820   T   T   T
  0.9913039361235040  0.0259295855987027  0.6327304685597069   T   T   T
  0.2669491525423737  0.8644067796610173  0.3976208246282127   F   F   F
  0.4194915254237301  0.6440677966101660  0.4162352201503552   F   F   F
  0.3220338983050866  0.4237288135593218  0.4348496156724977   F   F   F
  0.4745762711864430  0.2033898305084776  0.4534640111946402   F   F   F
  0.3763822728151560  0.9885651740801447  0.4641285715857491   T   T   T
  0.2789797726460471  0.7698377381585805  0.4920449011060106   T   T   T
  0.4315727725145396  0.5469728384086660  0.5100468754568375   T   T   T
  0.3338374988546199  0.3303041996772693  0.5286817420882595   T   T   T
  0.4878071240811619  0.1029034456340147  0.5406141371968572   T   T   T
  0.3889548312363103  0.8807572194061342  0.5686149330345107   T   T   T
  0.2917567506995715  0.6658130022821620  0.5846830753867036   T   T   T
  0.4439449117386052  0.4572549101650675  0.6072346124574078   T   T   T
  0.3461231781872110  0.2410755083852452  0.6192722924556262   T   T   T
  0.2512295650964982  0.0249923351232935  0.6328742036723405   T   T   T
  0.5169491525423737  0.8644067796610173  0.3976208246282127   F   F   F
  0.6694915254237301  0.6440677966101660  0.4162352201503552   F   F   F
  0.5720338983050866  0.4237288135593218  0.4348496156724977   F   F   F
  0.7245762711864430  0.2033898305084776  0.4534640111946402   F   F   F
  0.6266546166558429  0.9880036370673189  0.4646345170932160   T   T   T
  0.5294969738077566  0.7697633012799368  0.4919988718526732   T   T   T
  0.6817112739606649  0.5458577146366675  0.5104272188433470   T   T   T
  0.5836192610969548  0.3286258504139837  0.5288663001219748   T   T   T
  0.7366094334751643  0.1026457821585318  0.5410545231093913   T   T   T
  0.6408038482344359  0.8797996123909438  0.5685613706168694   T   T   T
  0.5423315727451385  0.6675081396742933  0.5842619119224352   T   T   T
  0.6941197275519969  0.4574936675068241  0.6090778136502470   T   T   T
  0.5950387647296228  0.2418895244502824  0.6260307715421820   T   T   T
  0.4978603036766872  0.0279408882248534  0.6307717929567830   T   T   T
  0.7669491525423737  0.8644067796610173  0.3976208246282127   F   F   F
  0.9194915254237301  0.6440677966101660  0.4162352201503552   F   F   F
  0.8220338983050866  0.4237288135593218  0.4348496156724977   F   F   F
  0.9745762711864430  0.2033898305084776  0.4534640111946402   F   F   F
  0.8767942622168150  0.9880832174336012  0.4643360771183798   T   T   T
  0.7781118274915360  0.7693016126056909  0.4924714086439900   T   T   T
  0.9313223921289595  0.5462684440477397  0.5092920378458773   T   T   T
  0.8322170476075340  0.3282578456518090  0.5281834366812641   T   T   T
  0.9867774571980127  0.1024293374807394  0.5410319544783603   T   T   T
  0.8901943135436898  0.8793686508288003  0.5694398453727653   T   T   T
  0.7920649309582156  0.6643805882916707  0.5860288597334201   T   T   T
  0.9419994743676867  0.4515130908229527  0.6038203007162054   T   T   T
  0.8430814531422924  0.2421368248359745  0.6205125956650029   T   T   T
  0.7449497797750321  0.0277567932073825  0.6312367466696533   T   T   T
  0.5715071719867193  0.4133610966103927  0.6619551952966229   T   T   T
  0.5661293213727855  0.4352352136225758  0.7041776223634604   T   T   T
  0.1127942013316109  0.1035669283444246  0.6789856378707385   T   T   T
  0.1123195168682597  0.1025605269753794  0.7221095086443138   T   T   T
  0.1869196375665303  0.4928490469884134  0.6785886871104329   T   T   T
  0.2700582941503457  0.4985255720754957  0.6884737822217843   T   T   T
 
  0.00000000E+00  0.00000000E+00  0.00000000E+00
  0.00000000E+00  0.00000000E+00  0.00000000E+00
  0.00000000E+00  0.00000000E+00  0.00000000E+00
  0.00000000E+00  0.00000000E+00  0.00000000E+00
  0.00000000E+00  0.00000000E+00  0.00000000E+00
  0.00000000E+00  0.00000000E+00  0.00000000E+00
  0.00000000E+00  0.00000000E+00  0.00000000E+00
  0.00000000E+00  0.00000000E+00  0.00000000E+00
  0.00000000E+00  0.00000000E+00  0.00000000E+00
  0.00000000E+00  0.00000000E+00  0.00000000E+00
  0.00000000E+00  0.00000000E+00  0.00000000E+00
  0.00000000E+00  0.00000000E+00  0.00000000E+00
  0.00000000E+00  0.00000000E+00  0.00000000E+00
  0.00000000E+00  0.00000000E+00  0.00000000E+00
  0.00000000E+00  0.00000000E+00  0.00000000E+00
  0.00000000E+00  0.00000000E+00  0.00000000E+00
  0.00000000E+00  0.00000000E+00  0.00000000E+00
  0.00000000E+00  0.00000000E+00  0.00000000E+00
  0.00000000E+00  0.00000000E+00  0.00000000E+00
  0.00000000E+00  0.00000000E+00  0.00000000E+00
  0.00000000E+00  0.00000000E+00  0.00000000E+00
  0.00000000E+00  0.00000000E+00  0.00000000E+00
  0.00000000E+00  0.00000000E+00  0.00000000E+00
  0.00000000E+00  0.00000000E+00  0.00000000E+00
  0.00000000E+00  0.00000000E+00  0.00000000E+00
  0.00000000E+00  0.00000000E+00  0.00000000E+00
  0.00000000E+00  0.00000000E+00  0.00000000E+00
  0.00000000E+00  0.00000000E+00  0.00000000E+00
  0.00000000E+00  0.00000000E+00  0.00000000E+00
  0.00000000E+00  0.00000000E+00  0.00000000E+00
  0.00000000E+00  0.00000000E+00  0.00000000E+00
  0.00000000E+00  0.00000000E+00  0.00000000E+00
  0.00000000E+00  0.00000000E+00  0.00000000E+00
  0.00000000E+00  0.00000000E+00  0.00000000E+00
  0.00000000E+00  0.00000000E+00  0.00000000E+00
  0.00000000E+00  0.00000000E+00  0.00000000E+00
  0.00000000E+00  0.00000000E+00  0.00000000E+00
  0.00000000E+00  0.00000000E+00  0.00000000E+00
  0.00000000E+00  0.00000000E+00  0.00000000E+00
  0.00000000E+00  0.00000000E+00  0.00000000E+00
  0.00000000E+00  0.00000000E+00  0.00000000E+00
  0.00000000E+00  0.00000000E+00  0.00000000E+00
  0.00000000E+00  0.00000000E+00  0.00000000E+00
  0.00000000E+00  0.00000000E+00  0.00000000E+00
  0.00000000E+00  0.00000000E+00  0.00000000E+00
  0.00000000E+00  0.00000000E+00  0.00000000E+00
  0.00000000E+00  0.00000000E+00  0.00000000E+00
  0.00000000E+00  0.00000000E+00  0.00000000E+00
  0.00000000E+00  0.00000000E+00  0.00000000E+00
  0.00000000E+00  0.00000000E+00  0.00000000E+00
  0.00000000E+00  0.00000000E+00  0.00000000E+00
  0.00000000E+00  0.00000000E+00  0.00000000E+00
  0.00000000E+00  0.00000000E+00  0.00000000E+00
  0.00000000E+00  0.00000000E+00  0.00000000E+00
  0.00000000E+00  0.00000000E+00  0.00000000E+00
  0.00000000E+00  0.00000000E+00  0.00000000E+00
  0.00000000E+00  0.00000000E+00  0.00000000E+00
  0.00000000E+00  0.00000000E+00  0.00000000E+00
  0.00000000E+00  0.00000000E+00  0.00000000E+00
  0.00000000E+00  0.00000000E+00  0.00000000E+00
  0.00000000E+00  0.00000000E+00  0.00000000E+00
  0.00000000E+00  0.00000000E+00  0.00000000E+00
