Pt  C  O  C  O  H                       
    1.000000000000000     
    11.2213408561008308    0.0000000000000000    0.0000000000000000
     1.4026676070126025   10.7740943252779040    0.0000000000000000
     0.0000000000000000    0.0000000000000000   27.7475611781839042
   Pt   C    O    C    O    H 
    56     1     1     1     2     1
Selective dynamics
Direct
  0.0169491525423737  0.8644067796610173  0.3976208246282127   F   F   F
  0.1694915254237301  0.6440677966101660  0.4162352201503552   F   F   F
  0.0720338983050866  0.4237288135593218  0.4348496156724977   F   F   F
  0.2245762711864430  0.2033898305084776  0.4534640111946402   F   F   F
  0.1266667570049914  0.9887927320164357  0.4644129851663094   T   T   T
  0.0270810143300233  0.7718814372284346  0.4924591049239598   T   T   T
  0.1798534941980685  0.5478855044588425  0.5089888026602909   T   T   T
  0.0827126476532867  0.3298215877907120  0.5272394968208922   T   T   T
  0.2374962025479707  0.1052531690175455  0.5420988584189974   T   T   T
  0.1373937768373210  0.8808609172631818  0.5680450557542691   T   T   T
  0.0384064195653586  0.6663091462788573  0.5851411684457604   T   T   T
  0.1861509596263375  0.4549799208194092  0.6027939509701993   T   T   T
  0.0902620405987829  0.2429051408913085  0.6202791230298065   T   T   T
  0.9978519143494105  0.0268556242856916  0.6313587648332614   T   T   T
  0.2669491525423737  0.8644067796610173  0.3976208246282127   F   F   F
  0.4194915254237301  0.6440677966101660  0.4162352201503552   F   F   F
  0.3220338983050866  0.4237288135593218  0.4348496156724977   F   F   F
  0.4745762711864430  0.2033898305084776  0.4534640111946402   F   F   F
  0.3770816347265690  0.9892339519549516  0.4653278357186102   T   T   T
  0.2775005283052628  0.7698015645828493  0.4922056429543398   T   T   T
  0.4310669936295678  0.5440840271663303  0.5113957405035641   T   T   T
  0.3338894402867627  0.3270834553288541  0.5285521982771703   T   T   T
  0.4865368300422479  0.1023445819837975  0.5449123538395356   T   T   T
  0.3867955403052211  0.8791579715973480  0.5674700000628563   T   T   T
  0.2892630456049616  0.6646723785116894  0.5847558934031976   T   T   T
  0.4412584428096393  0.4550205020512133  0.6097485872423796   T   T   T
  0.3381911453661009  0.2430405801460443  0.6263092557437665   T   T   T
  0.2407608671711726  0.0275836399555837  0.6318432866346465   T   T   T
  0.5169491525423737  0.8644067796610173  0.3976208246282127   F   F   F
  0.6694915254237301  0.6440677966101660  0.4162352201503552   F   F   F
  0.5720338983050866  0.4237288135593218  0.4348496156724977   F   F   F
  0.7245762711864430  0.2033898305084776  0.4534640111946402   F   F   F
  0.6252965674001301  0.9895082116687498  0.4650291607993938   T   T   T
  0.5277414522486326  0.7692177557188500  0.4924237325966266   T   T   T
  0.6802796009184106  0.5476810443298249  0.5090739967779244   T   T   T
  0.5823137562486657  0.3262668135363451  0.5301579902443309   T   T   T
  0.7365250686871855  0.1020576066893760  0.5415397492209727   T   T   T
  0.6371125508656457  0.8830478670298793  0.5695343657860266   T   T   T
  0.5391118185693441  0.6637082966035788  0.5856413508477505   T   T   T
  0.6924551633968840  0.4526656836620504  0.6029760266427693   T   T   T
  0.5978944683442463  0.2375293760116702  0.6257263447774530   T   T   T
  0.4852084249081330  0.0162144319103284  0.6338317887574415   T   T   T
  0.7669491525423737  0.8644067796610173  0.3976208246282127   F   F   F
  0.9194915254237301  0.6440677966101660  0.4162352201503552   F   F   F
  0.8220338983050866  0.4237288135593218  0.4348496156724977   F   F   F
  0.9745762711864430  0.2033898305084776  0.4534640111946402   F   F   F
  0.8759421665592994  0.9884735473517171  0.4650763715605233   T   T   T
  0.7769755817340576  0.7730305963486052  0.4932725540012636   T   T   T
  0.9289540962878554  0.5492165963804455  0.5093390134123446   T   T   T
  0.8322649434635299  0.3286417939002374  0.5270146934574133   T   T   T
  0.9870759243504010  0.1026714786364546  0.5406957620857137   T   T   T
  0.8860595107278538  0.8806542331304630  0.5708055692451119   T   T   T
  0.7873118757954776  0.6662495031660843  0.5859114085754565   T   T   T
  0.9403074273748606  0.4557078582578409  0.6035659766990950   T   T   T
  0.8481941855505941  0.2433381029729306  0.6192967864273252   T   T   T
  0.7516601547420937  0.0255263227299708  0.6348129733117023   T   T   T
  0.6612521003420930  0.1393935324660173  0.6838714993737094   T   T   T
  0.6521662462633955  0.1435719101997811  0.7264254275391823   T   T   T
  0.3880333885725574  0.3756306601278923  0.6698838153019064   T   T   T
  0.3842684406208971  0.3950863435697610  0.7118491088756466   T   T   T
  0.4438736015214744  0.9525364128373081  0.6983960547713108   T   T   T
  0.4777334508302979  0.0000861228942690  0.7238780788773667   T   T   T
 
  0.00000000E+00  0.00000000E+00  0.00000000E+00
  0.00000000E+00  0.00000000E+00  0.00000000E+00
  0.00000000E+00  0.00000000E+00  0.00000000E+00
  0.00000000E+00  0.00000000E+00  0.00000000E+00
  0.00000000E+00  0.00000000E+00  0.00000000E+00
  0.00000000E+00  0.00000000E+00  0.00000000E+00
  0.00000000E+00  0.00000000E+00  0.00000000E+00
  0.00000000E+00  0.00000000E+00  0.00000000E+00
  0.00000000E+00  0.00000000E+00  0.00000000E+00
  0.00000000E+00  0.00000000E+00  0.00000000E+00
  0.00000000E+00  0.00000000E+00  0.00000000E+00
  0.00000000E+00  0.00000000E+00  0.00000000E+00
  0.00000000E+00  0.00000000E+00  0.00000000E+00
  0.00000000E+00  0.00000000E+00  0.00000000E+00
  0.00000000E+00  0.00000000E+00  0.00000000E+00
  0.00000000E+00  0.00000000E+00  0.00000000E+00
  0.00000000E+00  0.00000000E+00  0.00000000E+00
  0.00000000E+00  0.00000000E+00  0.00000000E+00
  0.00000000E+00  0.00000000E+00  0.00000000E+00
  0.00000000E+00  0.00000000E+00  0.00000000E+00
  0.00000000E+00  0.00000000E+00  0.00000000E+00
  0.00000000E+00  0.00000000E+00  0.00000000E+00
  0.00000000E+00  0.00000000E+00  0.00000000E+00
  0.00000000E+00  0.00000000E+00  0.00000000E+00
  0.00000000E+00  0.00000000E+00  0.00000000E+00
  0.00000000E+00  0.00000000E+00  0.00000000E+00
  0.00000000E+00  0.00000000E+00  0.00000000E+00
  0.00000000E+00  0.00000000E+00  0.00000000E+00
  0.00000000E+00  0.00000000E+00  0.00000000E+00
  0.00000000E+00  0.00000000E+00  0.00000000E+00
  0.00000000E+00  0.00000000E+00  0.00000000E+00
  0.00000000E+00  0.00000000E+00  0.00000000E+00
  0.00000000E+00  0.00000000E+00  0.00000000E+00
  0.00000000E+00  0.00000000E+00  0.00000000E+00
  0.00000000E+00  0.00000000E+00  0.00000000E+00
  0.00000000E+00  0.00000000E+00  0.00000000E+00
  0.00000000E+00  0.00000000E+00  0.00000000E+00
  0.00000000E+00  0.00000000E+00  0.00000000E+00
  0.00000000E+00  0.00000000E+00  0.00000000E+00
  0.00000000E+00  0.00000000E+00  0.00000000E+00
  0.00000000E+00  0.00000000E+00  0.00000000E+00
  0.00000000E+00  0.00000000E+00  0.00000000E+00
  0.00000000E+00  0.00000000E+00  0.00000000E+00
  0.00000000E+00  0.00000000E+00  0.00000000E+00
  0.00000000E+00  0.00000000E+00  0.00000000E+00
  0.00000000E+00  0.00000000E+00  0.00000000E+00
  0.00000000E+00  0.00000000E+00  0.00000000E+00
  0.00000000E+00  0.00000000E+00  0.00000000E+00
  0.00000000E+00  0.00000000E+00  0.00000000E+00
  0.00000000E+00  0.00000000E+00  0.00000000E+00
  0.00000000E+00  0.00000000E+00  0.00000000E+00
  0.00000000E+00  0.00000000E+00  0.00000000E+00
  0.00000000E+00  0.00000000E+00  0.00000000E+00
  0.00000000E+00  0.00000000E+00  0.00000000E+00
  0.00000000E+00  0.00000000E+00  0.00000000E+00
  0.00000000E+00  0.00000000E+00  0.00000000E+00
  0.00000000E+00  0.00000000E+00  0.00000000E+00
  0.00000000E+00  0.00000000E+00  0.00000000E+00
  0.00000000E+00  0.00000000E+00  0.00000000E+00
  0.00000000E+00  0.00000000E+00  0.00000000E+00
  0.00000000E+00  0.00000000E+00  0.00000000E+00
  0.00000000E+00  0.00000000E+00  0.00000000E+00
