Pt  C  O  C  O  H                       
    1.000000000000000     
    11.2213408561008308    0.0000000000000000    0.0000000000000000
     1.4026676070126025   10.7740943252779040    0.0000000000000000
     0.0000000000000000    0.0000000000000000   27.7475611781839042
   Pt   C    O    C    O    H 
    56     1     1     1     2     1
Selective dynamics
Direct
  0.0169491525423737  0.8644067796610173  0.3976208246282127   F   F   F
  0.1694915254237301  0.6440677966101660  0.4162352201503552   F   F   F
  0.0720338983050866  0.4237288135593218  0.4348496156724977   F   F   F
  0.2245762711864430  0.2033898305084776  0.4534640111946402   F   F   F
  0.1257014730308398  0.9885539448301347  0.4663115327534901   T   T   T
  0.0268309129751542  0.7732070360864074  0.4929374578962743   T   T   T
  0.1802762555122415  0.5494606059981332  0.5092939902716759   T   T   T
  0.0842060864971269  0.3277553822877237  0.5261724121303071   T   T   T
  0.2385694091441769  0.0991946076430262  0.5424419346435019   T   T   T
  0.1406266404110523  0.8789896008837979  0.5689785160187851   T   T   T
  0.0408950433414568  0.6649107155542890  0.5857283785758688   T   T   T
  0.1902440213496282  0.4520481569944226  0.6033987808819717   T   T   T
  0.0937924298731298  0.2381443099285696  0.6174711153471157   T   T   T
  0.0027541181747872  0.0196561474580328  0.6372439890681162   T   T   T
  0.2669491525423737  0.8644067796610173  0.3976208246282127   F   F   F
  0.4194915254237301  0.6440677966101660  0.4162352201503552   F   F   F
  0.3220338983050866  0.4237288135593218  0.4348496156724977   F   F   F
  0.4745762711864430  0.2033898305084776  0.4534640111946402   F   F   F
  0.3761263225676085  0.9883049309707382  0.4650086477089305   T   T   T
  0.2793548389841784  0.7699934241247850  0.4929247840159256   T   T   T
  0.4318724861246385  0.5468507712887472  0.5112477212446571   T   T   T
  0.3337195841570214  0.3297043426495490  0.5275578742046085   T   T   T
  0.4862375151791478  0.1024510868050009  0.5420901749775302   T   T   T
  0.3884431556107970  0.8779994137296555  0.5704563324199631   T   T   T
  0.2916742414707366  0.6612086843158275  0.5861726550343568   T   T   T
  0.4430287471558836  0.4535925043695130  0.6093260918134903   T   T   T
  0.3365621279575045  0.2364101146331487  0.6184357965652661   T   T   T
  0.2468097832591907  0.0192529346002110  0.6377263906204175   T   T   T
  0.5169491525423737  0.8644067796610173  0.3976208246282127   F   F   F
  0.6694915254237301  0.6440677966101660  0.4162352201503552   F   F   F
  0.5720338983050866  0.4237288135593218  0.4348496156724977   F   F   F
  0.7245762711864430  0.2033898305084776  0.4534640111946402   F   F   F
  0.6273586087087092  0.9893419166411549  0.4660619340162342   T   T   T
  0.5286615820427677  0.7712548690093430  0.4927623129637240   T   T   T
  0.6819919626739400  0.5486080993520723  0.5088479930751643   T   T   T
  0.5837113290491643  0.3279763318992746  0.5281136545200277   T   T   T
  0.7324805866104624  0.1035149817396102  0.5460633494544030   T   T   T
  0.6385662195184258  0.8818220228616764  0.5703157422612040   T   T   T
  0.5430591845942464  0.6641961643698153  0.5854463028672884   T   T   T
  0.6985386558917450  0.4524614723442006  0.6014592594187531   T   T   T
  0.5962201327989171  0.2398907625483566  0.6253158307205263   T   T   T
  0.4903808903465453  0.0258598251424518  0.6326281033370036   T   T   T
  0.7669491525423737  0.8644067796610173  0.3976208246282127   F   F   F
  0.9194915254237301  0.6440677966101660  0.4162352201503552   F   F   F
  0.8220338983050866  0.4237288135593218  0.4348496156724977   F   F   F
  0.9745762711864430  0.2033898305084776  0.4534640111946402   F   F   F
  0.8753417848423266  0.9904433168215233  0.4652848246200623   T   T   T
  0.7775452613960253  0.7730893748141007  0.4928849553404001   T   T   T
  0.9310358031237884  0.5500784273824602  0.5090911159784224   T   T   T
  0.8338072426210751  0.3261293446887384  0.5261808502682530   T   T   T
  0.9848634318588246  0.0993161092441367  0.5425829219066975   T   T   T
  0.8891446668583721  0.8830620225297687  0.5710041753435372   T   T   T
  0.7924845972519617  0.6664728596018100  0.5853380620286722   T   T   T
  0.9424507044334338  0.4507007330879170  0.6021885277727613   T   T   T
  0.8485719435930599  0.2336867862026174  0.6179768884636396   T   T   T
  0.7472715774669366  0.0229213287083939  0.6372106240833871   T   T   T
  0.5177627326961451  0.3737241074804803  0.6694043333548975   T   T   T
  0.5173131676107156  0.3962344339705627  0.7110803037527349   T   T   T
  0.1269913370068133  0.9825416831723534  0.6885384440438916   T   T   T
  0.1320635245793876  0.9522040485927136  0.7295451363956831   T   T   T
  0.7511737612661953  0.9545209916345870  0.7025528126064027   T   T   T
  0.8348086925003437  0.9393046485681543  0.7135353956175655   T   T   T
 
  0.00000000E+00  0.00000000E+00  0.00000000E+00
  0.00000000E+00  0.00000000E+00  0.00000000E+00
  0.00000000E+00  0.00000000E+00  0.00000000E+00
  0.00000000E+00  0.00000000E+00  0.00000000E+00
  0.00000000E+00  0.00000000E+00  0.00000000E+00
  0.00000000E+00  0.00000000E+00  0.00000000E+00
  0.00000000E+00  0.00000000E+00  0.00000000E+00
  0.00000000E+00  0.00000000E+00  0.00000000E+00
  0.00000000E+00  0.00000000E+00  0.00000000E+00
  0.00000000E+00  0.00000000E+00  0.00000000E+00
  0.00000000E+00  0.00000000E+00  0.00000000E+00
  0.00000000E+00  0.00000000E+00  0.00000000E+00
  0.00000000E+00  0.00000000E+00  0.00000000E+00
  0.00000000E+00  0.00000000E+00  0.00000000E+00
  0.00000000E+00  0.00000000E+00  0.00000000E+00
  0.00000000E+00  0.00000000E+00  0.00000000E+00
  0.00000000E+00  0.00000000E+00  0.00000000E+00
  0.00000000E+00  0.00000000E+00  0.00000000E+00
  0.00000000E+00  0.00000000E+00  0.00000000E+00
  0.00000000E+00  0.00000000E+00  0.00000000E+00
  0.00000000E+00  0.00000000E+00  0.00000000E+00
  0.00000000E+00  0.00000000E+00  0.00000000E+00
  0.00000000E+00  0.00000000E+00  0.00000000E+00
  0.00000000E+00  0.00000000E+00  0.00000000E+00
  0.00000000E+00  0.00000000E+00  0.00000000E+00
  0.00000000E+00  0.00000000E+00  0.00000000E+00
  0.00000000E+00  0.00000000E+00  0.00000000E+00
  0.00000000E+00  0.00000000E+00  0.00000000E+00
  0.00000000E+00  0.00000000E+00  0.00000000E+00
  0.00000000E+00  0.00000000E+00  0.00000000E+00
  0.00000000E+00  0.00000000E+00  0.00000000E+00
  0.00000000E+00  0.00000000E+00  0.00000000E+00
  0.00000000E+00  0.00000000E+00  0.00000000E+00
  0.00000000E+00  0.00000000E+00  0.00000000E+00
  0.00000000E+00  0.00000000E+00  0.00000000E+00
  0.00000000E+00  0.00000000E+00  0.00000000E+00
  0.00000000E+00  0.00000000E+00  0.00000000E+00
  0.00000000E+00  0.00000000E+00  0.00000000E+00
  0.00000000E+00  0.00000000E+00  0.00000000E+00
  0.00000000E+00  0.00000000E+00  0.00000000E+00
  0.00000000E+00  0.00000000E+00  0.00000000E+00
  0.00000000E+00  0.00000000E+00  0.00000000E+00
  0.00000000E+00  0.00000000E+00  0.00000000E+00
  0.00000000E+00  0.00000000E+00  0.00000000E+00
  0.00000000E+00  0.00000000E+00  0.00000000E+00
  0.00000000E+00  0.00000000E+00  0.00000000E+00
  0.00000000E+00  0.00000000E+00  0.00000000E+00
  0.00000000E+00  0.00000000E+00  0.00000000E+00
  0.00000000E+00  0.00000000E+00  0.00000000E+00
  0.00000000E+00  0.00000000E+00  0.00000000E+00
  0.00000000E+00  0.00000000E+00  0.00000000E+00
  0.00000000E+00  0.00000000E+00  0.00000000E+00
  0.00000000E+00  0.00000000E+00  0.00000000E+00
  0.00000000E+00  0.00000000E+00  0.00000000E+00
  0.00000000E+00  0.00000000E+00  0.00000000E+00
  0.00000000E+00  0.00000000E+00  0.00000000E+00
  0.00000000E+00  0.00000000E+00  0.00000000E+00
  0.00000000E+00  0.00000000E+00  0.00000000E+00
  0.00000000E+00  0.00000000E+00  0.00000000E+00
  0.00000000E+00  0.00000000E+00  0.00000000E+00
  0.00000000E+00  0.00000000E+00  0.00000000E+00
  0.00000000E+00  0.00000000E+00  0.00000000E+00
