Pt  C  O  C  O  H                       
    1.000000000000000     
    11.2213408561008308    0.0000000000000000    0.0000000000000000
     1.4026676070126025   10.7740943252779040    0.0000000000000000
     0.0000000000000000    0.0000000000000000   27.7475611781839042
   Pt   C    O    C    O    H 
    56     1     1     1     2     1
Selective dynamics
Direct
  0.0169491525423737  0.8644067796610173  0.3976208246282127   F   F   F
  0.1694915254237301  0.6440677966101660  0.4162352201503552   F   F   F
  0.0720338983050866  0.4237288135593218  0.4348496156724977   F   F   F
  0.2245762711864430  0.2033898305084776  0.4534640111946402   F   F   F
  0.1260107822401394  0.9889595184761419  0.4647174614338176   T   T   T
  0.0276733894615162  0.7709994469422635  0.4920806774248456   T   T   T
  0.1805505127953616  0.5472572732116947  0.5102134867793977   T   T   T
  0.0844663487446825  0.3309279578790219  0.5288844204653477   T   T   T
  0.2366347282085506  0.1069737520130701  0.5408011711850353   T   T   T
  0.1377626639094728  0.8842623140586581  0.5679969869520237   T   T   T
  0.0391468484272480  0.6701392584288433  0.5842791511605968   T   T   T
  0.1904513361380861  0.4604558357689599  0.6093304747498968   T   T   T
  0.0937996261714502  0.2446943336554099  0.6260022302378874   T   T   T
  0.9959552122187931  0.0316683638485997  0.6308719829921475   T   T   T
  0.2669491525423737  0.8644067796610173  0.3976208246282127   F   F   F
  0.4194915254237301  0.6440677966101660  0.4162352201503552   F   F   F
  0.3220338983050866  0.4237288135593218  0.4348496156724977   F   F   F
  0.4745762711864430  0.2033898305084776  0.4534640111946402   F   F   F
  0.3770377704540387  0.9881987685769049  0.4642455760535023   T   T   T
  0.2775307456723139  0.7709208981400287  0.4921609590553027   T   T   T
  0.4321578000114159  0.5493785226798047  0.5101974592716962   T   T   T
  0.3342769997790235  0.3338211401454856  0.5298962288647141   T   T   T
  0.4860000426200780  0.1054699032876515  0.5406053213641797   T   T   T
  0.3877185569062422  0.8831089131951875  0.5680875498614002   T   T   T
  0.2847646688640905  0.6699333787849239  0.5843301222722990   T   T   T
  0.4381108828548370  0.4618213250206090  0.6095653420247260   T   T   T
  0.3443870840886615  0.2463140375512017  0.6214183645340748   T   T   T
  0.2449246138878642  0.0318183106533393  0.6305589497127760   T   T   T
  0.5169491525423737  0.8644067796610173  0.3976208246282127   F   F   F
  0.6694915254237301  0.6440677966101660  0.4162352201503552   F   F   F
  0.5720338983050866  0.4237288135593218  0.4348496156724977   F   F   F
  0.7245762711864430  0.2033898305084776  0.4534640111946402   F   F   F
  0.6263782687277371  0.9872530877625957  0.4652728724277362   T   T   T
  0.5279910487069984  0.7698760686947477  0.4938708821859571   T   T   T
  0.6792304058410461  0.5508343525201996  0.5097469532489656   T   T   T
  0.5825772248545432  0.3298383966640822  0.5317254325857048   T   T   T
  0.7361413369516649  0.1063560083821016  0.5407848174877453   T   T   T
  0.6383243247718655  0.8812757734893657  0.5690573721075006   T   T   T
  0.5396092694832669  0.6724850405326087  0.5922836997362835   T   T   T
  0.6973964661490784  0.4554912692054361  0.6022974720470945   T   T   T
  0.5944884261906249  0.2483548237924979  0.6259876149188082   T   T   T
  0.4927580937214071  0.0312069721047010  0.6297067611775176   T   T   T
  0.7669491525423737  0.8644067796610173  0.3976208246282127   F   F   F
  0.9194915254237301  0.6440677966101660  0.4162352201503552   F   F   F
  0.8220338983050866  0.4237288135593218  0.4348496156724977   F   F   F
  0.9745762711864430  0.2033898305084776  0.4534640111946402   F   F   F
  0.8758972248854363  0.9888838002314116  0.4644502451452941   T   T   T
  0.7780637552180375  0.7711682703705621  0.4923475478975829   T   T   T
  0.9300784555390289  0.5476054341990392  0.5102489574754989   T   T   T
  0.8343626645257126  0.3314063092680892  0.5277609340555658   T   T   T
  0.9873355739208280  0.1059633127485586  0.5408503792450176   T   T   T
  0.8881756147920137  0.8832287411645336  0.5685681862609590   T   T   T
  0.7921806154165039  0.6684859355875570  0.5860359599973943   T   T   T
  0.9411091285603763  0.4599108673180486  0.6088384945057069   T   T   T
  0.8437447290523133  0.2432028717740613  0.6202498397013376   T   T   T
  0.7462643971739488  0.0293466815154109  0.6299050325975608   T   T   T
  0.4913317545004915  0.5928794927416812  0.6533440301701356   T   T   T
  0.4905404331008220  0.6142219490771331  0.6951310055249119   T   T   T
  0.0713507822975535  0.4151601927932828  0.6627978975711784   T   T   T
  0.0677625325500762  0.4358957835263363  0.7050840805214545   T   T   T
  0.5962878453686231  0.2427973582024679  0.6978353920442374   T   T   T
  0.6674730264192534  0.2802221310372240  0.7076547781527706   T   T   T
 
  0.00000000E+00  0.00000000E+00  0.00000000E+00
  0.00000000E+00  0.00000000E+00  0.00000000E+00
  0.00000000E+00  0.00000000E+00  0.00000000E+00
  0.00000000E+00  0.00000000E+00  0.00000000E+00
  0.00000000E+00  0.00000000E+00  0.00000000E+00
  0.00000000E+00  0.00000000E+00  0.00000000E+00
  0.00000000E+00  0.00000000E+00  0.00000000E+00
  0.00000000E+00  0.00000000E+00  0.00000000E+00
  0.00000000E+00  0.00000000E+00  0.00000000E+00
  0.00000000E+00  0.00000000E+00  0.00000000E+00
  0.00000000E+00  0.00000000E+00  0.00000000E+00
  0.00000000E+00  0.00000000E+00  0.00000000E+00
  0.00000000E+00  0.00000000E+00  0.00000000E+00
  0.00000000E+00  0.00000000E+00  0.00000000E+00
  0.00000000E+00  0.00000000E+00  0.00000000E+00
  0.00000000E+00  0.00000000E+00  0.00000000E+00
  0.00000000E+00  0.00000000E+00  0.00000000E+00
  0.00000000E+00  0.00000000E+00  0.00000000E+00
  0.00000000E+00  0.00000000E+00  0.00000000E+00
  0.00000000E+00  0.00000000E+00  0.00000000E+00
  0.00000000E+00  0.00000000E+00  0.00000000E+00
  0.00000000E+00  0.00000000E+00  0.00000000E+00
  0.00000000E+00  0.00000000E+00  0.00000000E+00
  0.00000000E+00  0.00000000E+00  0.00000000E+00
  0.00000000E+00  0.00000000E+00  0.00000000E+00
  0.00000000E+00  0.00000000E+00  0.00000000E+00
  0.00000000E+00  0.00000000E+00  0.00000000E+00
  0.00000000E+00  0.00000000E+00  0.00000000E+00
  0.00000000E+00  0.00000000E+00  0.00000000E+00
  0.00000000E+00  0.00000000E+00  0.00000000E+00
  0.00000000E+00  0.00000000E+00  0.00000000E+00
  0.00000000E+00  0.00000000E+00  0.00000000E+00
  0.00000000E+00  0.00000000E+00  0.00000000E+00
  0.00000000E+00  0.00000000E+00  0.00000000E+00
  0.00000000E+00  0.00000000E+00  0.00000000E+00
  0.00000000E+00  0.00000000E+00  0.00000000E+00
  0.00000000E+00  0.00000000E+00  0.00000000E+00
  0.00000000E+00  0.00000000E+00  0.00000000E+00
  0.00000000E+00  0.00000000E+00  0.00000000E+00
  0.00000000E+00  0.00000000E+00  0.00000000E+00
  0.00000000E+00  0.00000000E+00  0.00000000E+00
  0.00000000E+00  0.00000000E+00  0.00000000E+00
  0.00000000E+00  0.00000000E+00  0.00000000E+00
  0.00000000E+00  0.00000000E+00  0.00000000E+00
  0.00000000E+00  0.00000000E+00  0.00000000E+00
  0.00000000E+00  0.00000000E+00  0.00000000E+00
  0.00000000E+00  0.00000000E+00  0.00000000E+00
  0.00000000E+00  0.00000000E+00  0.00000000E+00
  0.00000000E+00  0.00000000E+00  0.00000000E+00
  0.00000000E+00  0.00000000E+00  0.00000000E+00
  0.00000000E+00  0.00000000E+00  0.00000000E+00
  0.00000000E+00  0.00000000E+00  0.00000000E+00
  0.00000000E+00  0.00000000E+00  0.00000000E+00
  0.00000000E+00  0.00000000E+00  0.00000000E+00
  0.00000000E+00  0.00000000E+00  0.00000000E+00
  0.00000000E+00  0.00000000E+00  0.00000000E+00
  0.00000000E+00  0.00000000E+00  0.00000000E+00
  0.00000000E+00  0.00000000E+00  0.00000000E+00
  0.00000000E+00  0.00000000E+00  0.00000000E+00
  0.00000000E+00  0.00000000E+00  0.00000000E+00
  0.00000000E+00  0.00000000E+00  0.00000000E+00
  0.00000000E+00  0.00000000E+00  0.00000000E+00
