Pt  C  O  C  O  H                       
    1.000000000000000     
    11.2213408561008308    0.0000000000000000    0.0000000000000000
     1.4026676070126025   10.7740943252779040    0.0000000000000000
     0.0000000000000000    0.0000000000000000   27.7475611781839042
   Pt   C    O    C    O    H 
    56     1     1     1     2     1
Selective dynamics
Direct
  0.0169491525423737  0.8644067796610173  0.3976208246282127   F   F   F
  0.1694915254237301  0.6440677966101660  0.4162352201503552   F   F   F
  0.0720338983050866  0.4237288135593218  0.4348496156724977   F   F   F
  0.2245762711864430  0.2033898305084776  0.4534640111946402   F   F   F
  0.1265413922533387  0.9877000216127940  0.4649571092661550   T   T   T
  0.0277897908191188  0.7700883501548773  0.4929142882707934   T   T   T
  0.1789947192596152  0.5504193307690939  0.5112557104038880   T   T   T
  0.0836948421276543  0.3329472065911074  0.5289802436757707   T   T   T
  0.2374000955417395  0.1054209054105475  0.5406013955238316   T   T   T
  0.1382157985827354  0.8804864758996244  0.5683021388994195   T   T   T
  0.0392822500226034  0.6686764545476865  0.5903512101778010   T   T   T
  0.1957586510169994  0.4547847408263387  0.6089216415367221   T   T   T
  0.0942303564299498  0.2409602922258261  0.6196926988594855   T   T   T
  0.9968156904564927  0.0279430311466650  0.6308649772526570   T   T   T
  0.2669491525423737  0.8644067796610173  0.3976208246282127   F   F   F
  0.4194915254237301  0.6440677966101660  0.4162352201503552   F   F   F
  0.3220338983050866  0.4237288135593218  0.4348496156724977   F   F   F
  0.4745762711864430  0.2033898305084776  0.4534640111946402   F   F   F
  0.3769079559951505  0.9876238356738183  0.4646444782379511   T   T   T
  0.2787008746999380  0.7710259630894435  0.4918452716368050   T   T   T
  0.4322654123509793  0.5497370707460768  0.5100640211424071   T   T   T
  0.3338590896778527  0.3345095687780306  0.5291196876335962   T   T   T
  0.4868108003609424  0.1015821132330086  0.5405140235625037   T   T   T
  0.3894664406843331  0.8806610941036337  0.5687494702309515   T   T   T
  0.2872733280468201  0.6677090544692407  0.5835595977974644   T   T   T
  0.4442445171598488  0.4558562233392164  0.6086200839696698   T   T   T
  0.3466514437822850  0.2403457073785562  0.6195495484680400   T   T   T
  0.2458399231884617  0.0269971768370219  0.6304927459165374   T   T   T
  0.5169491525423737  0.8644067796610173  0.3976208246282127   F   F   F
  0.6694915254237301  0.6440677966101660  0.4162352201503552   F   F   F
  0.5720338983050866  0.4237288135593218  0.4348496156724977   F   F   F
  0.7245762711864430  0.2033898305084776  0.4534640111946402   F   F   F
  0.6266458491053192  0.9861124045813887  0.4654587399963917   T   T   T
  0.5285892799639409  0.7686097613594302  0.4942208734870226   T   T   T
  0.6811970305962008  0.5511141696619114  0.5109344138297804   T   T   T
  0.5828391017941895  0.3300725012284994  0.5275834840833377   T   T   T
  0.7365918093518432  0.1039696390770149  0.5407233826237188   T   T   T
  0.6392023764783777  0.8786215599913632  0.5700049137022071   T   T   T
  0.5411451224404735  0.6697816284630023  0.5930320552184885   T   T   T
  0.6953263880923932  0.4486614313876984  0.6029165142684493   T   T   T
  0.5953261988120623  0.2388433215646297  0.6200664231820736   T   T   T
  0.4950486861594814  0.0277977308317577  0.6311373351984845   T   T   T
  0.7669491525423737  0.8644067796610173  0.3976208246282127   F   F   F
  0.9194915254237301  0.6440677966101660  0.4162352201503552   F   F   F
  0.8220338983050866  0.4237288135593218  0.4348496156724977   F   F   F
  0.9745762711864430  0.2033898305084776  0.4534640111946402   F   F   F
  0.8763226814025297  0.9871616166288530  0.4647589165229314   T   T   T
  0.7778870104733105  0.7697761671485644  0.4932576288595694   T   T   T
  0.9300172967583925  0.5510865513241078  0.5106110751617429   T   T   T
  0.8349666465801645  0.3312158857027520  0.5273119309278532   T   T   T
  0.9878205575124913  0.1031484944969860  0.5404238426748516   T   T   T
  0.8886589428070594  0.8829981004025262  0.5679508093504866   T   T   T
  0.7903755468738525  0.6693350803129516  0.5912461101977856   T   T   T
  0.9406987151409978  0.4529775420441280  0.6075868968544776   T   T   T
  0.8449602836327563  0.2393575094256439  0.6198702835964166   T   T   T
  0.7469752403327745  0.0260462254297860  0.6309181055822622   T   T   T
  0.4905028451465204  0.5881347187213152  0.6532100929342407   T   T   T
  0.4836437966815881  0.6091468120518669  0.6950937337442038   T   T   T
  0.9208042689886394  0.6215949855920450  0.6451701055285365   T   T   T
  0.9182313745705019  0.6456209745028647  0.6870987194781234   T   T   T
  0.1884002534441343  0.4901684453345184  0.6788596813186332   T   T   T
  0.2710950970397372  0.4941417601314531  0.6895719821192650   T   T   T
 
  0.00000000E+00  0.00000000E+00  0.00000000E+00
  0.00000000E+00  0.00000000E+00  0.00000000E+00
  0.00000000E+00  0.00000000E+00  0.00000000E+00
  0.00000000E+00  0.00000000E+00  0.00000000E+00
  0.00000000E+00  0.00000000E+00  0.00000000E+00
  0.00000000E+00  0.00000000E+00  0.00000000E+00
  0.00000000E+00  0.00000000E+00  0.00000000E+00
  0.00000000E+00  0.00000000E+00  0.00000000E+00
  0.00000000E+00  0.00000000E+00  0.00000000E+00
  0.00000000E+00  0.00000000E+00  0.00000000E+00
  0.00000000E+00  0.00000000E+00  0.00000000E+00
  0.00000000E+00  0.00000000E+00  0.00000000E+00
  0.00000000E+00  0.00000000E+00  0.00000000E+00
  0.00000000E+00  0.00000000E+00  0.00000000E+00
  0.00000000E+00  0.00000000E+00  0.00000000E+00
  0.00000000E+00  0.00000000E+00  0.00000000E+00
  0.00000000E+00  0.00000000E+00  0.00000000E+00
  0.00000000E+00  0.00000000E+00  0.00000000E+00
  0.00000000E+00  0.00000000E+00  0.00000000E+00
  0.00000000E+00  0.00000000E+00  0.00000000E+00
  0.00000000E+00  0.00000000E+00  0.00000000E+00
  0.00000000E+00  0.00000000E+00  0.00000000E+00
  0.00000000E+00  0.00000000E+00  0.00000000E+00
  0.00000000E+00  0.00000000E+00  0.00000000E+00
  0.00000000E+00  0.00000000E+00  0.00000000E+00
  0.00000000E+00  0.00000000E+00  0.00000000E+00
  0.00000000E+00  0.00000000E+00  0.00000000E+00
  0.00000000E+00  0.00000000E+00  0.00000000E+00
  0.00000000E+00  0.00000000E+00  0.00000000E+00
  0.00000000E+00  0.00000000E+00  0.00000000E+00
  0.00000000E+00  0.00000000E+00  0.00000000E+00
  0.00000000E+00  0.00000000E+00  0.00000000E+00
  0.00000000E+00  0.00000000E+00  0.00000000E+00
  0.00000000E+00  0.00000000E+00  0.00000000E+00
  0.00000000E+00  0.00000000E+00  0.00000000E+00
  0.00000000E+00  0.00000000E+00  0.00000000E+00
  0.00000000E+00  0.00000000E+00  0.00000000E+00
  0.00000000E+00  0.00000000E+00  0.00000000E+00
  0.00000000E+00  0.00000000E+00  0.00000000E+00
  0.00000000E+00  0.00000000E+00  0.00000000E+00
  0.00000000E+00  0.00000000E+00  0.00000000E+00
  0.00000000E+00  0.00000000E+00  0.00000000E+00
  0.00000000E+00  0.00000000E+00  0.00000000E+00
  0.00000000E+00  0.00000000E+00  0.00000000E+00
  0.00000000E+00  0.00000000E+00  0.00000000E+00
  0.00000000E+00  0.00000000E+00  0.00000000E+00
  0.00000000E+00  0.00000000E+00  0.00000000E+00
  0.00000000E+00  0.00000000E+00  0.00000000E+00
  0.00000000E+00  0.00000000E+00  0.00000000E+00
  0.00000000E+00  0.00000000E+00  0.00000000E+00
  0.00000000E+00  0.00000000E+00  0.00000000E+00
  0.00000000E+00  0.00000000E+00  0.00000000E+00
  0.00000000E+00  0.00000000E+00  0.00000000E+00
  0.00000000E+00  0.00000000E+00  0.00000000E+00
  0.00000000E+00  0.00000000E+00  0.00000000E+00
  0.00000000E+00  0.00000000E+00  0.00000000E+00
  0.00000000E+00  0.00000000E+00  0.00000000E+00
  0.00000000E+00  0.00000000E+00  0.00000000E+00
  0.00000000E+00  0.00000000E+00  0.00000000E+00
  0.00000000E+00  0.00000000E+00  0.00000000E+00
  0.00000000E+00  0.00000000E+00  0.00000000E+00
  0.00000000E+00  0.00000000E+00  0.00000000E+00
