Pt  C  O  C  O  H                       
    1.000000000000000     
    11.2213408561008308    0.0000000000000000    0.0000000000000000
     1.4026676070126025   10.7740943252779040    0.0000000000000000
     0.0000000000000000    0.0000000000000000   27.7475611781839042
   Pt   C    O    C    O    H 
    56     1     1     1     2     1
Selective dynamics
Direct
  0.0169491525423737  0.8644067796610173  0.3976208246282127   F   F   F
  0.1694915254237301  0.6440677966101660  0.4162352201503552   F   F   F
  0.0720338983050866  0.4237288135593218  0.4348496156724977   F   F   F
  0.2245762711864430  0.2033898305084776  0.4534640111946402   F   F   F
  0.1263711807151075  0.9884336262485929  0.4659892571614377   T   T   T
  0.0276069199323652  0.7716013616490459  0.4924704634563455   T   T   T
  0.1808012438882798  0.5485621492581527  0.5089497030503672   T   T   T
  0.0851211158599477  0.3276264521028766  0.5263195103264083   T   T   T
  0.2401626340127070  0.0987857878914578  0.5422958489019658   T   T   T
  0.1398689750320945  0.8796477862066220  0.5688039590206553   T   T   T
  0.0441819718149274  0.6639555302478568  0.5852527378344140   T   T   T
  0.1920311761769023  0.4514481333739458  0.6035127513782343   T   T   T
  0.0942014145219819  0.2376703276406416  0.6176989995350728   T   T   T
  0.9967729742120157  0.0198097268172263  0.6370795911407330   T   T   T
  0.2669491525423737  0.8644067796610173  0.3976208246282127   F   F   F
  0.4194915254237301  0.6440677966101660  0.4162352201503552   F   F   F
  0.3220338983050866  0.4237288135593218  0.4348496156724977   F   F   F
  0.4745762711864430  0.2033898305084776  0.4534640111946402   F   F   F
  0.3757568757386115  0.9886405717529471  0.4647173875164312   T   T   T
  0.2792120441792501  0.7695842666120423  0.4928342921318188   T   T   T
  0.4321189016670705  0.5458444176754040  0.5110567685502089   T   T   T
  0.3346052839267538  0.3293543346272748  0.5277648037232291   T   T   T
  0.4875728150677184  0.1023578572762941  0.5415515725434689   T   T   T
  0.3878043293908687  0.8786199847551424  0.5707773846628179   T   T   T
  0.2913173702838395  0.6617056056791365  0.5862469492653161   T   T   T
  0.4423717133356118  0.4541540560335718  0.6098156299271623   T   T   T
  0.3380247389289541  0.2349669486297695  0.6184206887117795   T   T   T
  0.2448561759013830  0.0198930066034105  0.6372879007252124   T   T   T
  0.5169491525423737  0.8644067796610173  0.3976208246282127   F   F   F
  0.6694915254237301  0.6440677966101660  0.4162352201503552   F   F   F
  0.5720338983050866  0.4237288135593218  0.4348496156724977   F   F   F
  0.7245762711864430  0.2033898305084776  0.4534640111946402   F   F   F
  0.6267357843583896  0.9880901719899026  0.4649057589932785   T   T   T
  0.5272275446743060  0.7705558133731775  0.4924113208789988   T   T   T
  0.6826551113314995  0.5491675479222584  0.5102538302295846   T   T   T
  0.5838497090569893  0.3290035243203243  0.5285986223700353   T   T   T
  0.7344209773655430  0.1045477620213758  0.5419501326311779   T   T   T
  0.6376313968620345  0.8811338191407256  0.5679668366435376   T   T   T
  0.5402150053318623  0.6636396947169040  0.5845962477892792   T   T   T
  0.6978803005872739  0.4509899756911442  0.6013188636314166   T   T   T
  0.5971036938684301  0.2415220479902787  0.6280508212717715   T   T   T
  0.4959932175083062  0.0264558604429688  0.6318366917671419   T   T   T
  0.7669491525423737  0.8644067796610173  0.3976208246282127   F   F   F
  0.9194915254237301  0.6440677966101660  0.4162352201503552   F   F   F
  0.8220338983050866  0.4237288135593218  0.4348496156724977   F   F   F
  0.9745762711864430  0.2033898305084776  0.4534640111946402   F   F   F
  0.8763973052432900  0.9887038210157232  0.4647009800570542   T   T   T
  0.7773850548665159  0.7697596073106121  0.4935696009849201   T   T   T
  0.9303462868829366  0.5498671588095094  0.5103766374891977   T   T   T
  0.8353302396349839  0.3267991117612697  0.5269151496826541   T   T   T
  0.9863936954827669  0.0996865741151237  0.5424244961456135   T   T   T
  0.8903001248482091  0.8827948599402338  0.5689679026707096   T   T   T
  0.7929604041047417  0.6696844011296094  0.5906851569108241   T   T   T
  0.9448537880347737  0.4510389428776165  0.6027916014753356   T   T   T
  0.8491347636275618  0.2365118094586479  0.6194891630426985   T   T   T
  0.7442088309024618  0.0251092377530430  0.6319835596104350   T   T   T
  0.5158521274665788  0.3777811922449106  0.6702538712632957   T   T   T
  0.5140802320843256  0.3997207345592302  0.7120193609409795   T   T   T
  0.1248064466094367  0.9838228307274101  0.6875375548902320   T   T   T
  0.1287193895168786  0.9533550926955742  0.7285549151550155   T   T   T
  0.7848608092189504  0.7148800575885119  0.6602663309071893   T   T   T
  0.8678891779733626  0.7004827763131851  0.6720823268648015   T   T   T
 
  0.00000000E+00  0.00000000E+00  0.00000000E+00
  0.00000000E+00  0.00000000E+00  0.00000000E+00
  0.00000000E+00  0.00000000E+00  0.00000000E+00
  0.00000000E+00  0.00000000E+00  0.00000000E+00
  0.00000000E+00  0.00000000E+00  0.00000000E+00
  0.00000000E+00  0.00000000E+00  0.00000000E+00
  0.00000000E+00  0.00000000E+00  0.00000000E+00
  0.00000000E+00  0.00000000E+00  0.00000000E+00
  0.00000000E+00  0.00000000E+00  0.00000000E+00
  0.00000000E+00  0.00000000E+00  0.00000000E+00
  0.00000000E+00  0.00000000E+00  0.00000000E+00
  0.00000000E+00  0.00000000E+00  0.00000000E+00
  0.00000000E+00  0.00000000E+00  0.00000000E+00
  0.00000000E+00  0.00000000E+00  0.00000000E+00
  0.00000000E+00  0.00000000E+00  0.00000000E+00
  0.00000000E+00  0.00000000E+00  0.00000000E+00
  0.00000000E+00  0.00000000E+00  0.00000000E+00
  0.00000000E+00  0.00000000E+00  0.00000000E+00
  0.00000000E+00  0.00000000E+00  0.00000000E+00
  0.00000000E+00  0.00000000E+00  0.00000000E+00
  0.00000000E+00  0.00000000E+00  0.00000000E+00
  0.00000000E+00  0.00000000E+00  0.00000000E+00
  0.00000000E+00  0.00000000E+00  0.00000000E+00
  0.00000000E+00  0.00000000E+00  0.00000000E+00
  0.00000000E+00  0.00000000E+00  0.00000000E+00
  0.00000000E+00  0.00000000E+00  0.00000000E+00
  0.00000000E+00  0.00000000E+00  0.00000000E+00
  0.00000000E+00  0.00000000E+00  0.00000000E+00
  0.00000000E+00  0.00000000E+00  0.00000000E+00
  0.00000000E+00  0.00000000E+00  0.00000000E+00
  0.00000000E+00  0.00000000E+00  0.00000000E+00
  0.00000000E+00  0.00000000E+00  0.00000000E+00
  0.00000000E+00  0.00000000E+00  0.00000000E+00
  0.00000000E+00  0.00000000E+00  0.00000000E+00
  0.00000000E+00  0.00000000E+00  0.00000000E+00
  0.00000000E+00  0.00000000E+00  0.00000000E+00
  0.00000000E+00  0.00000000E+00  0.00000000E+00
  0.00000000E+00  0.00000000E+00  0.00000000E+00
  0.00000000E+00  0.00000000E+00  0.00000000E+00
  0.00000000E+00  0.00000000E+00  0.00000000E+00
  0.00000000E+00  0.00000000E+00  0.00000000E+00
  0.00000000E+00  0.00000000E+00  0.00000000E+00
  0.00000000E+00  0.00000000E+00  0.00000000E+00
  0.00000000E+00  0.00000000E+00  0.00000000E+00
  0.00000000E+00  0.00000000E+00  0.00000000E+00
  0.00000000E+00  0.00000000E+00  0.00000000E+00
  0.00000000E+00  0.00000000E+00  0.00000000E+00
  0.00000000E+00  0.00000000E+00  0.00000000E+00
  0.00000000E+00  0.00000000E+00  0.00000000E+00
  0.00000000E+00  0.00000000E+00  0.00000000E+00
  0.00000000E+00  0.00000000E+00  0.00000000E+00
  0.00000000E+00  0.00000000E+00  0.00000000E+00
  0.00000000E+00  0.00000000E+00  0.00000000E+00
  0.00000000E+00  0.00000000E+00  0.00000000E+00
  0.00000000E+00  0.00000000E+00  0.00000000E+00
  0.00000000E+00  0.00000000E+00  0.00000000E+00
  0.00000000E+00  0.00000000E+00  0.00000000E+00
  0.00000000E+00  0.00000000E+00  0.00000000E+00
  0.00000000E+00  0.00000000E+00  0.00000000E+00
  0.00000000E+00  0.00000000E+00  0.00000000E+00
  0.00000000E+00  0.00000000E+00  0.00000000E+00
  0.00000000E+00  0.00000000E+00  0.00000000E+00
