Pt  C  O  C  O  H                       
    1.000000000000000     
    11.2213408561008308    0.0000000000000000    0.0000000000000000
     1.4026676070126025   10.7740943252779040    0.0000000000000000
     0.0000000000000000    0.0000000000000000   27.7475611781839042
   Pt   C    O    C    O    H 
    56     1     1     1     2     1
Selective dynamics
Direct
  0.0169491525423737  0.8644067796610173  0.3976208246282127   F   F   F
  0.1694915254237301  0.6440677966101660  0.4162352201503552   F   F   F
  0.0720338983050866  0.4237288135593218  0.4348496156724977   F   F   F
  0.2245762711864430  0.2033898305084776  0.4534640111946402   F   F   F
  0.1270030352519706  0.9891279993799809  0.4653116927375410   T   T   T
  0.0276537956306605  0.7723134006105294  0.4924677739378079   T   T   T
  0.1808673265517008  0.5492107896729935  0.5088391868558741   T   T   T
  0.0834003988963914  0.3262202250711827  0.5299356526850219   T   T   T
  0.2355555176412973  0.1039455689061030  0.5430674408544302   T   T   T
  0.1398601356325184  0.8829982386457055  0.5695449365601727   T   T   T
  0.0426653162821260  0.6668920898341376  0.5853192050876048   T   T   T
  0.1943331571187447  0.4553679619210101  0.6020487243743640   T   T   T
  0.0974205299249699  0.2443355731189618  0.6248775910433328   T   T   T
  0.9940708455716681  0.0284627403815108  0.6310063726449862   T   T   T
  0.2669491525423737  0.8644067796610173  0.3976208246282127   F   F   F
  0.4194915254237301  0.6440677966101660  0.4162352201503552   F   F   F
  0.3220338983050866  0.4237288135593218  0.4348496156724977   F   F   F
  0.4745762711864430  0.2033898305084776  0.4534640111946402   F   F   F
  0.3756383491164170  0.9900919807700342  0.4651511007801708   T   T   T
  0.2780921176383946  0.7725291284460873  0.4924100932805583   T   T   T
  0.4307751833446226  0.5498130113775062  0.5090557028554240   T   T   T
  0.3343012071660910  0.3288528972838377  0.5263271217029987   T   T   T
  0.4898035341675180  0.1023658478573567  0.5428903165451974   T   T   T
  0.3905197187778018  0.8824120451267905  0.5679966596260821   T   T   T
  0.2910690296063717  0.6685032681788773  0.5856858213799851   T   T   T
  0.4396165062892067  0.4560801039907116  0.6025849989736668   T   T   T
  0.3486386522098753  0.2396762803998896  0.6176579873470148   T   T   T
  0.2500189943759107  0.0207321308334109  0.6355565972084168   T   T   T
  0.5169491525423737  0.8644067796610173  0.3976208246282127   F   F   F
  0.6694915254237301  0.6440677966101660  0.4162352201503552   F   F   F
  0.5720338983050866  0.4237288135593218  0.4348496156724977   F   F   F
  0.7245762711864430  0.2033898305084776  0.4534640111946402   F   F   F
  0.6254359220192407  0.9885467148278310  0.4652537847369618   T   T   T
  0.5289054669835829  0.7707217088940477  0.4926886083443347   T   T   T
  0.6811438847256625  0.5469635599321665  0.5110461095212689   T   T   T
  0.5838724145800972  0.3293827906061095  0.5283111660456364   T   T   T
  0.7373742115870043  0.1025616993051067  0.5413947975499446   T   T   T
  0.6391842625797448  0.8797457679268746  0.5698205345025592   T   T   T
  0.5405568763895495  0.6658530547912854  0.5860288042705470   T   T   T
  0.6914526458309230  0.4598249166041422  0.6086111872018060   T   T   T
  0.5921723098960721  0.2427643480462180  0.6235524777029464   T   T   T
  0.5003132314774886  0.0221317832375495  0.6369492755793951   T   T   T
  0.7669491525423737  0.8644067796610173  0.3976208246282127   F   F   F
  0.9194915254237301  0.6440677966101660  0.4162352201503552   F   F   F
  0.8220338983050866  0.4237288135593218  0.4348496156724977   F   F   F
  0.9745762711864430  0.2033898305084776  0.4534640111946402   F   F   F
  0.8767552255873609  0.9889070039906228  0.4643279535242288   T   T   T
  0.7775896537908404  0.7705915448132933  0.4924571824744452   T   T   T
  0.9318373865033075  0.5478874404477325  0.5087002773316633   T   T   T
  0.8320193786681426  0.3291336274926867  0.5286892206718682   T   T   T
  0.9845797450066011  0.1044905988381200  0.5418240891108471   T   T   T
  0.8897273564101935  0.8794674423083109  0.5687236092832434   T   T   T
  0.7922359110650057  0.6648857913435609  0.5856243117822780   T   T   T
  0.9458192988775634  0.4550403711463454  0.6019375164254133   T   T   T
  0.8442464158476199  0.2433034054155974  0.6247118324958474   T   T   T
  0.7470027912115647  0.0246505158915368  0.6313190724129967   T   T   T
  0.3767881326841548  0.9871404518980049  0.6864060782153742   T   T   T
  0.3816475286663137  0.9562222618260406  0.7273329580544705   T   T   T
  0.7075730646144346  0.3387180185177444  0.6668526708851074   T   T   T
  0.7038163312540975  0.3542099584515121  0.7094959831704577   T   T   T
  0.0943153632052184  0.2597933149899355  0.6960327262072578   T   T   T
  0.1687861884900657  0.2924817739759483  0.7048731218188570   T   T   T
 
  0.00000000E+00  0.00000000E+00  0.00000000E+00
  0.00000000E+00  0.00000000E+00  0.00000000E+00
  0.00000000E+00  0.00000000E+00  0.00000000E+00
  0.00000000E+00  0.00000000E+00  0.00000000E+00
  0.00000000E+00  0.00000000E+00  0.00000000E+00
  0.00000000E+00  0.00000000E+00  0.00000000E+00
  0.00000000E+00  0.00000000E+00  0.00000000E+00
  0.00000000E+00  0.00000000E+00  0.00000000E+00
  0.00000000E+00  0.00000000E+00  0.00000000E+00
  0.00000000E+00  0.00000000E+00  0.00000000E+00
  0.00000000E+00  0.00000000E+00  0.00000000E+00
  0.00000000E+00  0.00000000E+00  0.00000000E+00
  0.00000000E+00  0.00000000E+00  0.00000000E+00
  0.00000000E+00  0.00000000E+00  0.00000000E+00
  0.00000000E+00  0.00000000E+00  0.00000000E+00
  0.00000000E+00  0.00000000E+00  0.00000000E+00
  0.00000000E+00  0.00000000E+00  0.00000000E+00
  0.00000000E+00  0.00000000E+00  0.00000000E+00
  0.00000000E+00  0.00000000E+00  0.00000000E+00
  0.00000000E+00  0.00000000E+00  0.00000000E+00
  0.00000000E+00  0.00000000E+00  0.00000000E+00
  0.00000000E+00  0.00000000E+00  0.00000000E+00
  0.00000000E+00  0.00000000E+00  0.00000000E+00
  0.00000000E+00  0.00000000E+00  0.00000000E+00
  0.00000000E+00  0.00000000E+00  0.00000000E+00
  0.00000000E+00  0.00000000E+00  0.00000000E+00
  0.00000000E+00  0.00000000E+00  0.00000000E+00
  0.00000000E+00  0.00000000E+00  0.00000000E+00
  0.00000000E+00  0.00000000E+00  0.00000000E+00
  0.00000000E+00  0.00000000E+00  0.00000000E+00
  0.00000000E+00  0.00000000E+00  0.00000000E+00
  0.00000000E+00  0.00000000E+00  0.00000000E+00
  0.00000000E+00  0.00000000E+00  0.00000000E+00
  0.00000000E+00  0.00000000E+00  0.00000000E+00
  0.00000000E+00  0.00000000E+00  0.00000000E+00
  0.00000000E+00  0.00000000E+00  0.00000000E+00
  0.00000000E+00  0.00000000E+00  0.00000000E+00
  0.00000000E+00  0.00000000E+00  0.00000000E+00
  0.00000000E+00  0.00000000E+00  0.00000000E+00
  0.00000000E+00  0.00000000E+00  0.00000000E+00
  0.00000000E+00  0.00000000E+00  0.00000000E+00
  0.00000000E+00  0.00000000E+00  0.00000000E+00
  0.00000000E+00  0.00000000E+00  0.00000000E+00
  0.00000000E+00  0.00000000E+00  0.00000000E+00
  0.00000000E+00  0.00000000E+00  0.00000000E+00
  0.00000000E+00  0.00000000E+00  0.00000000E+00
  0.00000000E+00  0.00000000E+00  0.00000000E+00
  0.00000000E+00  0.00000000E+00  0.00000000E+00
  0.00000000E+00  0.00000000E+00  0.00000000E+00
  0.00000000E+00  0.00000000E+00  0.00000000E+00
  0.00000000E+00  0.00000000E+00  0.00000000E+00
  0.00000000E+00  0.00000000E+00  0.00000000E+00
  0.00000000E+00  0.00000000E+00  0.00000000E+00
  0.00000000E+00  0.00000000E+00  0.00000000E+00
  0.00000000E+00  0.00000000E+00  0.00000000E+00
  0.00000000E+00  0.00000000E+00  0.00000000E+00
  0.00000000E+00  0.00000000E+00  0.00000000E+00
  0.00000000E+00  0.00000000E+00  0.00000000E+00
  0.00000000E+00  0.00000000E+00  0.00000000E+00
  0.00000000E+00  0.00000000E+00  0.00000000E+00
  0.00000000E+00  0.00000000E+00  0.00000000E+00
  0.00000000E+00  0.00000000E+00  0.00000000E+00
