Pt  C  O  C  O  H                       
    1.000000000000000     
    11.2213408561008308    0.0000000000000000    0.0000000000000000
     1.4026676070126025   10.7740943252779040    0.0000000000000000
     0.0000000000000000    0.0000000000000000   27.7475611781839042
   Pt   C    O    C    O    H 
    56     1     1     1     2     1
Selective dynamics
Direct
  0.0169491525423737  0.8644067796610173  0.3976208246282127   F   F   F
  0.1694915254237301  0.6440677966101660  0.4162352201503552   F   F   F
  0.0720338983050866  0.4237288135593218  0.4348496156724977   F   F   F
  0.2245762711864430  0.2033898305084776  0.4534640111946402   F   F   F
  0.1263854156579588  0.9888958798255828  0.4646187985869019   T   T   T
  0.0277457769572873  0.7720540449077382  0.4924083649483172   T   T   T
  0.1807686033891553  0.5500454329134881  0.5089015248875185   T   T   T
  0.0852203358419268  0.3302415615767302  0.5270051491819808   T   T   T
  0.2373811679806214  0.1045406132515667  0.5409035801911124   T   T   T
  0.1378766387369170  0.8826502870079030  0.5681558793711731   T   T   T
  0.0408726233344080  0.6678088214207053  0.5856294023699282   T   T   T
  0.1908301495416748  0.4574122350794931  0.6033594642869669   T   T   T
  0.0988699056424779  0.2451021773928242  0.6199626578804572   T   T   T
  0.9968605442544828  0.0319162504339008  0.6304965086164669   T   T   T
  0.2669491525423737  0.8644067796610173  0.3976208246282127   F   F   F
  0.4194915254237301  0.6440677966101660  0.4162352201503552   F   F   F
  0.3220338983050866  0.4237288135593218  0.4348496156724977   F   F   F
  0.4745762711864430  0.2033898305084776  0.4534640111946402   F   F   F
  0.3779365899207827  0.9886597848402904  0.4660750014445835   T   T   T
  0.2781633197417931  0.7718139523034845  0.4921084655851571   T   T   T
  0.4316942959545637  0.5519503565696419  0.5102597314919189   T   T   T
  0.3355885966034524  0.3332146319259849  0.5281054810487182   T   T   T
  0.4869944991390163  0.1031612187286249  0.5453546433679756   T   T   T
  0.3890053968111705  0.8824912837884383  0.5694375322267737   T   T   T
  0.2864328352347497  0.6698671190740834  0.5844876236568691   T   T   T
  0.4388163878648214  0.4586678535460755  0.6093425106388068   T   T   T
  0.3436908950962136  0.2433961454691459  0.6194987471849105   T   T   T
  0.2413868487966681  0.0281844034524264  0.6312450951195067   T   T   T
  0.5169491525423737  0.8644067796610173  0.3976208246282127   F   F   F
  0.6694915254237301  0.6440677966101660  0.4162352201503552   F   F   F
  0.5720338983050866  0.4237288135593218  0.4348496156724977   F   F   F
  0.7245762711864430  0.2033898305084776  0.4534640111946402   F   F   F
  0.6253373855833123  0.9887228686146279  0.4656434539686745   T   T   T
  0.5279834068166258  0.7715969831248632  0.4944569880169583   T   T   T
  0.6804109457273847  0.5527670206579880  0.5092854614366229   T   T   T
  0.5819521227946811  0.3316805479697874  0.5273249950415325   T   T   T
  0.7366675505043471  0.1049202135871745  0.5410108730962045   T   T   T
  0.6390906635084354  0.8808928166958899  0.5697646542310857   T   T   T
  0.5400398977788315  0.6706785752771148  0.5927984824282787   T   T   T
  0.6975191644723692  0.4541229346203875  0.6009288730584903   T   T   T
  0.5913158780361882  0.2418202995526113  0.6184120910459430   T   T   T
  0.4956203553961223  0.0244635529068702  0.6366800879505016   T   T   T
  0.7669491525423737  0.8644067796610173  0.3976208246282127   F   F   F
  0.9194915254237301  0.6440677966101660  0.4162352201503552   F   F   F
  0.8220338983050866  0.4237288135593218  0.4348496156724977   F   F   F
  0.9745762711864430  0.2033898305084776  0.4534640111946402   F   F   F
  0.8758714579429119  0.9882675491993158  0.4650154024114386   T   T   T
  0.7781669385473652  0.7725948604786279  0.4924027941291320   T   T   T
  0.9301059929768909  0.5486895402625528  0.5089714794177262   T   T   T
  0.8341704747932134  0.3280689043788612  0.5301372658231199   T   T   T
  0.9872335318378440  0.1046578497751580  0.5409556241774826   T   T   T
  0.8895464000604910  0.8811783526117856  0.5690887524852077   T   T   T
  0.7925622425648323  0.6678462804343847  0.5857131147580877   T   T   T
  0.9452795676131767  0.4568076378711695  0.6029466626031663   T   T   T
  0.8453787769469141  0.2485810570366299  0.6253818544257621   T   T   T
  0.7501543478924217  0.0292630081866213  0.6302492608181854   T   T   T
  0.4917661968970817  0.5881252911823208  0.6533486607936998   T   T   T
  0.4905052394542003  0.6089278684941892  0.6952155048049571   T   T   T
  0.5029872740739703  0.9689841153354621  0.7000056051262447   T   T   T
  0.5080525095790794  0.9328114012658468  0.7393639062250557   T   T   T
  0.8466192965460037  0.2427116108195917  0.6970173483936118   T   T   T
  0.9134134073584896  0.2868728158810359  0.7069334773739872   T   T   T
 
  0.00000000E+00  0.00000000E+00  0.00000000E+00
  0.00000000E+00  0.00000000E+00  0.00000000E+00
  0.00000000E+00  0.00000000E+00  0.00000000E+00
  0.00000000E+00  0.00000000E+00  0.00000000E+00
  0.00000000E+00  0.00000000E+00  0.00000000E+00
  0.00000000E+00  0.00000000E+00  0.00000000E+00
  0.00000000E+00  0.00000000E+00  0.00000000E+00
  0.00000000E+00  0.00000000E+00  0.00000000E+00
  0.00000000E+00  0.00000000E+00  0.00000000E+00
  0.00000000E+00  0.00000000E+00  0.00000000E+00
  0.00000000E+00  0.00000000E+00  0.00000000E+00
  0.00000000E+00  0.00000000E+00  0.00000000E+00
  0.00000000E+00  0.00000000E+00  0.00000000E+00
  0.00000000E+00  0.00000000E+00  0.00000000E+00
  0.00000000E+00  0.00000000E+00  0.00000000E+00
  0.00000000E+00  0.00000000E+00  0.00000000E+00
  0.00000000E+00  0.00000000E+00  0.00000000E+00
  0.00000000E+00  0.00000000E+00  0.00000000E+00
  0.00000000E+00  0.00000000E+00  0.00000000E+00
  0.00000000E+00  0.00000000E+00  0.00000000E+00
  0.00000000E+00  0.00000000E+00  0.00000000E+00
  0.00000000E+00  0.00000000E+00  0.00000000E+00
  0.00000000E+00  0.00000000E+00  0.00000000E+00
  0.00000000E+00  0.00000000E+00  0.00000000E+00
  0.00000000E+00  0.00000000E+00  0.00000000E+00
  0.00000000E+00  0.00000000E+00  0.00000000E+00
  0.00000000E+00  0.00000000E+00  0.00000000E+00
  0.00000000E+00  0.00000000E+00  0.00000000E+00
  0.00000000E+00  0.00000000E+00  0.00000000E+00
  0.00000000E+00  0.00000000E+00  0.00000000E+00
  0.00000000E+00  0.00000000E+00  0.00000000E+00
  0.00000000E+00  0.00000000E+00  0.00000000E+00
  0.00000000E+00  0.00000000E+00  0.00000000E+00
  0.00000000E+00  0.00000000E+00  0.00000000E+00
  0.00000000E+00  0.00000000E+00  0.00000000E+00
  0.00000000E+00  0.00000000E+00  0.00000000E+00
  0.00000000E+00  0.00000000E+00  0.00000000E+00
  0.00000000E+00  0.00000000E+00  0.00000000E+00
  0.00000000E+00  0.00000000E+00  0.00000000E+00
  0.00000000E+00  0.00000000E+00  0.00000000E+00
  0.00000000E+00  0.00000000E+00  0.00000000E+00
  0.00000000E+00  0.00000000E+00  0.00000000E+00
  0.00000000E+00  0.00000000E+00  0.00000000E+00
  0.00000000E+00  0.00000000E+00  0.00000000E+00
  0.00000000E+00  0.00000000E+00  0.00000000E+00
  0.00000000E+00  0.00000000E+00  0.00000000E+00
  0.00000000E+00  0.00000000E+00  0.00000000E+00
  0.00000000E+00  0.00000000E+00  0.00000000E+00
  0.00000000E+00  0.00000000E+00  0.00000000E+00
  0.00000000E+00  0.00000000E+00  0.00000000E+00
  0.00000000E+00  0.00000000E+00  0.00000000E+00
  0.00000000E+00  0.00000000E+00  0.00000000E+00
  0.00000000E+00  0.00000000E+00  0.00000000E+00
  0.00000000E+00  0.00000000E+00  0.00000000E+00
  0.00000000E+00  0.00000000E+00  0.00000000E+00
  0.00000000E+00  0.00000000E+00  0.00000000E+00
  0.00000000E+00  0.00000000E+00  0.00000000E+00
  0.00000000E+00  0.00000000E+00  0.00000000E+00
  0.00000000E+00  0.00000000E+00  0.00000000E+00
  0.00000000E+00  0.00000000E+00  0.00000000E+00
  0.00000000E+00  0.00000000E+00  0.00000000E+00
  0.00000000E+00  0.00000000E+00  0.00000000E+00
