Pt  C  O  C  O  H                       
    1.000000000000000     
    11.2213408561008308    0.0000000000000000    0.0000000000000000
     1.4026676070126025   10.7740943252779040    0.0000000000000000
     0.0000000000000000    0.0000000000000000   27.7475611781839042
   Pt   C    O    C    O    H 
    56     1     1     1     2     1
Selective dynamics
Direct
  0.0169491525423737  0.8644067796610173  0.3976208246282127   F   F   F
  0.1694915254237301  0.6440677966101660  0.4162352201503552   F   F   F
  0.0720338983050866  0.4237288135593218  0.4348496156724977   F   F   F
  0.2245762711864430  0.2033898305084776  0.4534640111946402   F   F   F
  0.1273228233003300  0.9885325376702145  0.4651132062472478   T   T   T
  0.0270602430954014  0.7689927591361702  0.4925315341530448   T   T   T
  0.1803456357225544  0.5477862517258206  0.5088291599269846   T   T   T
  0.0847625215430451  0.3281696450768244  0.5285067437141857   T   T   T
  0.2334790386406048  0.1057835572695571  0.5436475882867307   T   T   T
  0.1376755718173314  0.8812435529847272  0.5680146988184281   T   T   T
  0.0416962101485978  0.6627633829270024  0.5858158574466914   T   T   T
  0.1946154433172866  0.4544979306976786  0.6032505784472662   T   T   T
  0.0978092093174815  0.2395827096499243  0.6245606096690380   T   T   T
  0.9967156925091020  0.0234885121885167  0.6309735596646435   T   T   T
  0.2669491525423737  0.8644067796610173  0.3976208246282127   F   F   F
  0.4194915254237301  0.6440677966101660  0.4162352201503552   F   F   F
  0.3220338983050866  0.4237288135593218  0.4348496156724977   F   F   F
  0.4745762711864430  0.2033898305084776  0.4534640111946402   F   F   F
  0.3765649330764435  0.9901645136421496  0.4651341368769781   T   T   T
  0.2783369823033130  0.7711568121543446  0.4917215606184741   T   T   T
  0.4320387183526032  0.5505781306923826  0.5100684465372861   T   T   T
  0.3354250897621644  0.3322550684303114  0.5276926556085515   T   T   T
  0.4900566719420072  0.1033552685021690  0.5432127851915624   T   T   T
  0.3891005159875150  0.8830183614315704  0.5667399882638667   T   T   T
  0.2869173449824547  0.6685134315741030  0.5837056705227449   T   T   T
  0.4411854825945606  0.4570610014946406  0.6096027701973831   T   T   T
  0.3450267090844070  0.2436021418304762  0.6189972886112383   T   T   T
  0.2503910249435772  0.0240452981724337  0.6334092521754049   T   T   T
  0.5169491525423737  0.8644067796610173  0.3976208246282127   F   F   F
  0.6694915254237301  0.6440677966101660  0.4162352201503552   F   F   F
  0.5720338983050866  0.4237288135593218  0.4348496156724977   F   F   F
  0.7245762711864430  0.2033898305084776  0.4534640111946402   F   F   F
  0.6255882404917203  0.9875518056479016  0.4653970684489777   T   T   T
  0.5290270204242699  0.7701174452475460  0.4936479670609715   T   T   T
  0.6802057053544319  0.5497172688712694  0.5099518066401904   T   T   T
  0.5825478910109270  0.3306550836551147  0.5278457438064339   T   T   T
  0.7390166754058545  0.1036147065255471  0.5411782358837562   T   T   T
  0.6407573903823841  0.8786753597806606  0.5697483480015464   T   T   T
  0.5402580350413186  0.6702861601149751  0.5916631532998378   T   T   T
  0.6944656567739471  0.4499440675111818  0.6023792093470078   T   T   T
  0.5941074359768307  0.2378616967733772  0.6198847721928789   T   T   T
  0.4932276442734491  0.0251645886502311  0.6338086227652516   T   T   T
  0.7669491525423737  0.8644067796610173  0.3976208246282127   F   F   F
  0.9194915254237301  0.6440677966101660  0.4162352201503552   F   F   F
  0.8220338983050866  0.4237288135593218  0.4348496156724977   F   F   F
  0.9745762711864430  0.2033898305084776  0.4534640111946402   F   F   F
  0.8764881792579946  0.9872568744742068  0.4649148952791290   T   T   T
  0.7783231647516582  0.7697882224616512  0.4926932353265376   T   T   T
  0.9302412283408482  0.5451036509804875  0.5109011530743118   T   T   T
  0.8343942405309810  0.3282333090455201  0.5285145785322720   T   T   T
  0.9864535320611667  0.1022301728159878  0.5413733176094411   T   T   T
  0.8895009046798528  0.8769705475620186  0.5696640880037585   T   T   T
  0.7929493440012443  0.6626928679237972  0.5862757526790925   T   T   T
  0.9434506854404078  0.4556014896251416  0.6087611577215264   T   T   T
  0.8427512540528921  0.2405158846643105  0.6257177086313855   T   T   T
  0.7477065681251109  0.0261429193228304  0.6311695008172447   T   T   T
  0.4920938739417098  0.5903454162315231  0.6525883195725778   T   T   T
  0.4892090472451195  0.6144033037373607  0.6942909538682971   T   T   T
  0.9607119553042964  0.3338719310621279  0.6675268632133666   T   T   T
  0.9582082274756210  0.3517720358971427  0.7100557338296464   T   T   T
  0.3819399742879666  0.9670779807176783  0.6898389513880239   T   T   T
  0.3961013915392423  0.8761329855428467  0.6917148478338496   T   T   T
 
  0.00000000E+00  0.00000000E+00  0.00000000E+00
  0.00000000E+00  0.00000000E+00  0.00000000E+00
  0.00000000E+00  0.00000000E+00  0.00000000E+00
  0.00000000E+00  0.00000000E+00  0.00000000E+00
  0.00000000E+00  0.00000000E+00  0.00000000E+00
  0.00000000E+00  0.00000000E+00  0.00000000E+00
  0.00000000E+00  0.00000000E+00  0.00000000E+00
  0.00000000E+00  0.00000000E+00  0.00000000E+00
  0.00000000E+00  0.00000000E+00  0.00000000E+00
  0.00000000E+00  0.00000000E+00  0.00000000E+00
  0.00000000E+00  0.00000000E+00  0.00000000E+00
  0.00000000E+00  0.00000000E+00  0.00000000E+00
  0.00000000E+00  0.00000000E+00  0.00000000E+00
  0.00000000E+00  0.00000000E+00  0.00000000E+00
  0.00000000E+00  0.00000000E+00  0.00000000E+00
  0.00000000E+00  0.00000000E+00  0.00000000E+00
  0.00000000E+00  0.00000000E+00  0.00000000E+00
  0.00000000E+00  0.00000000E+00  0.00000000E+00
  0.00000000E+00  0.00000000E+00  0.00000000E+00
  0.00000000E+00  0.00000000E+00  0.00000000E+00
  0.00000000E+00  0.00000000E+00  0.00000000E+00
  0.00000000E+00  0.00000000E+00  0.00000000E+00
  0.00000000E+00  0.00000000E+00  0.00000000E+00
  0.00000000E+00  0.00000000E+00  0.00000000E+00
  0.00000000E+00  0.00000000E+00  0.00000000E+00
  0.00000000E+00  0.00000000E+00  0.00000000E+00
  0.00000000E+00  0.00000000E+00  0.00000000E+00
  0.00000000E+00  0.00000000E+00  0.00000000E+00
  0.00000000E+00  0.00000000E+00  0.00000000E+00
  0.00000000E+00  0.00000000E+00  0.00000000E+00
  0.00000000E+00  0.00000000E+00  0.00000000E+00
  0.00000000E+00  0.00000000E+00  0.00000000E+00
  0.00000000E+00  0.00000000E+00  0.00000000E+00
  0.00000000E+00  0.00000000E+00  0.00000000E+00
  0.00000000E+00  0.00000000E+00  0.00000000E+00
  0.00000000E+00  0.00000000E+00  0.00000000E+00
  0.00000000E+00  0.00000000E+00  0.00000000E+00
  0.00000000E+00  0.00000000E+00  0.00000000E+00
  0.00000000E+00  0.00000000E+00  0.00000000E+00
  0.00000000E+00  0.00000000E+00  0.00000000E+00
  0.00000000E+00  0.00000000E+00  0.00000000E+00
  0.00000000E+00  0.00000000E+00  0.00000000E+00
  0.00000000E+00  0.00000000E+00  0.00000000E+00
  0.00000000E+00  0.00000000E+00  0.00000000E+00
  0.00000000E+00  0.00000000E+00  0.00000000E+00
  0.00000000E+00  0.00000000E+00  0.00000000E+00
  0.00000000E+00  0.00000000E+00  0.00000000E+00
  0.00000000E+00  0.00000000E+00  0.00000000E+00
  0.00000000E+00  0.00000000E+00  0.00000000E+00
  0.00000000E+00  0.00000000E+00  0.00000000E+00
  0.00000000E+00  0.00000000E+00  0.00000000E+00
  0.00000000E+00  0.00000000E+00  0.00000000E+00
  0.00000000E+00  0.00000000E+00  0.00000000E+00
  0.00000000E+00  0.00000000E+00  0.00000000E+00
  0.00000000E+00  0.00000000E+00  0.00000000E+00
  0.00000000E+00  0.00000000E+00  0.00000000E+00
  0.00000000E+00  0.00000000E+00  0.00000000E+00
  0.00000000E+00  0.00000000E+00  0.00000000E+00
  0.00000000E+00  0.00000000E+00  0.00000000E+00
  0.00000000E+00  0.00000000E+00  0.00000000E+00
  0.00000000E+00  0.00000000E+00  0.00000000E+00
  0.00000000E+00  0.00000000E+00  0.00000000E+00
