Pt  C  O  C  O  H                       
    1.000000000000000     
    11.2213408561008308    0.0000000000000000    0.0000000000000000
     1.4026676070126025   10.7740943252779040    0.0000000000000000
     0.0000000000000000    0.0000000000000000   27.7475611781839042
   Pt   C    O    C    O    H 
    56     1     1     1     2     1
Selective dynamics
Direct
  0.0169491525423737  0.8644067796610173  0.3976208246282127   F   F   F
  0.1694915254237301  0.6440677966101660  0.4162352201503552   F   F   F
  0.0720338983050866  0.4237288135593218  0.4348496156724977   F   F   F
  0.2245762711864430  0.2033898305084776  0.4534640111946402   F   F   F
  0.1261154973147476  0.9881233321357830  0.4650393509902123   T   T   T
  0.0276107836858062  0.7709428796832933  0.4930279101171659   T   T   T
  0.1782789160977984  0.5512017332618097  0.5097521255993168   T   T   T
  0.0835006173473411  0.3317040332500197  0.5279353403211218   T   T   T
  0.2380529542518565  0.1048068219103025  0.5405514338763265   T   T   T
  0.1387102181995288  0.8820961707460052  0.5685228711992111   T   T   T
  0.0416913780914234  0.6705069568197242  0.5907187950045075   T   T   T
  0.1950222648687353  0.4549048946732246  0.6039980113113971   T   T   T
  0.1002055431562158  0.2431425340199461  0.6201180824536013   T   T   T
  0.9991920467380190  0.0295398034196673  0.6305501025461067   T   T   T
  0.2669491525423737  0.8644067796610173  0.3976208246282127   F   F   F
  0.4194915254237301  0.6440677966101660  0.4162352201503552   F   F   F
  0.3220338983050866  0.4237288135593218  0.4348496156724977   F   F   F
  0.4745762711864430  0.2033898305084776  0.4534640111946402   F   F   F
  0.3768293445991646  0.9873963252576706  0.4650476520351565   T   T   T
  0.2781685512128310  0.7715033357794205  0.4923225445699266   T   T   T
  0.4311533433073361  0.5512577173960602  0.5102633074019933   T   T   T
  0.3341986917178935  0.3351111684965398  0.5281809738709984   T   T   T
  0.4868152932126764  0.1025053512684948  0.5404959338815850   T   T   T
  0.3893383328073193  0.8805431025928580  0.5693126116557986   T   T   T
  0.2865417966339880  0.6685010296575257  0.5846524486781758   T   T   T
  0.4401674969249798  0.4589026280171051  0.6099729004200342   T   T   T
  0.3453119336353784  0.2437188123312904  0.6200580648363646   T   T   T
  0.2477406640863365  0.0284544568465494  0.6308533049009305   T   T   T
  0.5169491525423737  0.8644067796610173  0.3976208246282127   F   F   F
  0.6694915254237301  0.6440677966101660  0.4162352201503552   F   F   F
  0.5720338983050866  0.4237288135593218  0.4348496156724977   F   F   F
  0.7245762711864430  0.2033898305084776  0.4534640111946402   F   F   F
  0.6266318973347769  0.9866063697059618  0.4650287223549739   T   T   T
  0.5276812377665593  0.7699778618034401  0.4943015857379420   T   T   T
  0.6811404345784404  0.5528439617992940  0.5102493936183666   T   T   T
  0.5813087067150737  0.3324769781644630  0.5273946823493499   T   T   T
  0.7355549319150086  0.1060267978154623  0.5407035875041918   T   T   T
  0.6389701898744650  0.8788949179440849  0.5694813661959415   T   T   T
  0.5406673612619722  0.6699688591254678  0.5930599650648850   T   T   T
  0.6953417855301491  0.4503214667345698  0.6009533950599018   T   T   T
  0.5908977717237365  0.2421101794216724  0.6193718503771168   T   T   T
  0.4948638849318299  0.0291094128186162  0.6311256400194913   T   T   T
  0.7669491525423737  0.8644067796610173  0.3976208246282127   F   F   F
  0.9194915254237301  0.6440677966101660  0.4162352201503552   F   F   F
  0.8220338983050866  0.4237288135593218  0.4348496156724977   F   F   F
  0.9745762711864430  0.2033898305084776  0.4534640111946402   F   F   F
  0.8764059026456803  0.9874496578516512  0.4651052246684486   T   T   T
  0.7778964205477276  0.7707475202990894  0.4932982358144032   T   T   T
  0.9296073629356945  0.5506915311465664  0.5101660247199579   T   T   T
  0.8337724881302778  0.3298080391850229  0.5299596244958924   T   T   T
  0.9873342813848383  0.1055598443193820  0.5413868235393462   T   T   T
  0.8890595705563955  0.8848602097369991  0.5678251729986432   T   T   T
  0.7920920767288738  0.6704140238035919  0.5908779694483071   T   T   T
  0.9457056360121384  0.4554318000754276  0.6068890400477420   T   T   T
  0.8465698684579367  0.2442098366892434  0.6243933889010747   T   T   T
  0.7439341375971764  0.0286049792572433  0.6297228325501423   T   T   T
  0.4907999304127639  0.5902421642701106  0.6539711799157099   T   T   T
  0.4884115222913544  0.6118229754096576  0.6957555848145714   T   T   T
  0.9220844598538300  0.6230277814853266  0.6447464533884324   T   T   T
  0.9196877087834513  0.6457443682603884  0.6868888900198341   T   T   T
  0.8456406213729651  0.2442493051896711  0.6960800108062333   T   T   T
  0.9110613325521422  0.2908501702287220  0.7057210399555558   T   T   T
 
  0.00000000E+00  0.00000000E+00  0.00000000E+00
  0.00000000E+00  0.00000000E+00  0.00000000E+00
  0.00000000E+00  0.00000000E+00  0.00000000E+00
  0.00000000E+00  0.00000000E+00  0.00000000E+00
  0.00000000E+00  0.00000000E+00  0.00000000E+00
  0.00000000E+00  0.00000000E+00  0.00000000E+00
  0.00000000E+00  0.00000000E+00  0.00000000E+00
  0.00000000E+00  0.00000000E+00  0.00000000E+00
  0.00000000E+00  0.00000000E+00  0.00000000E+00
  0.00000000E+00  0.00000000E+00  0.00000000E+00
  0.00000000E+00  0.00000000E+00  0.00000000E+00
  0.00000000E+00  0.00000000E+00  0.00000000E+00
  0.00000000E+00  0.00000000E+00  0.00000000E+00
  0.00000000E+00  0.00000000E+00  0.00000000E+00
  0.00000000E+00  0.00000000E+00  0.00000000E+00
  0.00000000E+00  0.00000000E+00  0.00000000E+00
  0.00000000E+00  0.00000000E+00  0.00000000E+00
  0.00000000E+00  0.00000000E+00  0.00000000E+00
  0.00000000E+00  0.00000000E+00  0.00000000E+00
  0.00000000E+00  0.00000000E+00  0.00000000E+00
  0.00000000E+00  0.00000000E+00  0.00000000E+00
  0.00000000E+00  0.00000000E+00  0.00000000E+00
  0.00000000E+00  0.00000000E+00  0.00000000E+00
  0.00000000E+00  0.00000000E+00  0.00000000E+00
  0.00000000E+00  0.00000000E+00  0.00000000E+00
  0.00000000E+00  0.00000000E+00  0.00000000E+00
  0.00000000E+00  0.00000000E+00  0.00000000E+00
  0.00000000E+00  0.00000000E+00  0.00000000E+00
  0.00000000E+00  0.00000000E+00  0.00000000E+00
  0.00000000E+00  0.00000000E+00  0.00000000E+00
  0.00000000E+00  0.00000000E+00  0.00000000E+00
  0.00000000E+00  0.00000000E+00  0.00000000E+00
  0.00000000E+00  0.00000000E+00  0.00000000E+00
  0.00000000E+00  0.00000000E+00  0.00000000E+00
  0.00000000E+00  0.00000000E+00  0.00000000E+00
  0.00000000E+00  0.00000000E+00  0.00000000E+00
  0.00000000E+00  0.00000000E+00  0.00000000E+00
  0.00000000E+00  0.00000000E+00  0.00000000E+00
  0.00000000E+00  0.00000000E+00  0.00000000E+00
  0.00000000E+00  0.00000000E+00  0.00000000E+00
  0.00000000E+00  0.00000000E+00  0.00000000E+00
  0.00000000E+00  0.00000000E+00  0.00000000E+00
  0.00000000E+00  0.00000000E+00  0.00000000E+00
  0.00000000E+00  0.00000000E+00  0.00000000E+00
  0.00000000E+00  0.00000000E+00  0.00000000E+00
  0.00000000E+00  0.00000000E+00  0.00000000E+00
  0.00000000E+00  0.00000000E+00  0.00000000E+00
  0.00000000E+00  0.00000000E+00  0.00000000E+00
  0.00000000E+00  0.00000000E+00  0.00000000E+00
  0.00000000E+00  0.00000000E+00  0.00000000E+00
  0.00000000E+00  0.00000000E+00  0.00000000E+00
  0.00000000E+00  0.00000000E+00  0.00000000E+00
  0.00000000E+00  0.00000000E+00  0.00000000E+00
  0.00000000E+00  0.00000000E+00  0.00000000E+00
  0.00000000E+00  0.00000000E+00  0.00000000E+00
  0.00000000E+00  0.00000000E+00  0.00000000E+00
  0.00000000E+00  0.00000000E+00  0.00000000E+00
  0.00000000E+00  0.00000000E+00  0.00000000E+00
  0.00000000E+00  0.00000000E+00  0.00000000E+00
  0.00000000E+00  0.00000000E+00  0.00000000E+00
  0.00000000E+00  0.00000000E+00  0.00000000E+00
  0.00000000E+00  0.00000000E+00  0.00000000E+00
