Pt  C  O  C  O  H                       
    1.000000000000000     
    11.2213408561008308    0.0000000000000000    0.0000000000000000
     1.4026676070126025   10.7740943252779040    0.0000000000000000
     0.0000000000000000    0.0000000000000000   27.7475611781839042
   Pt   C    O    C    O    H 
    56     1     1     1     2     1
Selective dynamics
Direct
  0.0169491525423737  0.8644067796610173  0.3976208246282127   F   F   F
  0.1694915254237301  0.6440677966101660  0.4162352201503552   F   F   F
  0.0720338983050866  0.4237288135593218  0.4348496156724977   F   F   F
  0.2245762711864430  0.2033898305084776  0.4534640111946402   F   F   F
  0.1257275695992778  0.9891414554550886  0.4655931480188714   T   T   T
  0.0276390466745307  0.7722622269478318  0.4924529043375603   T   T   T
  0.1806116787477478  0.5502815155674350  0.5092949575460231   T   T   T
  0.0851815647946096  0.3283601461061646  0.5262627491587298   T   T   T
  0.2393224378331018  0.0986550130898878  0.5418693963813540   T   T   T
  0.1399595830521790  0.8798786613330073  0.5681168717006962   T   T   T
  0.0424381481869437  0.6660556810000838  0.5859069589620720   T   T   T
  0.1921404497294134  0.4530446114698911  0.6033951278843799   T   T   T
  0.0981075032374415  0.2371328729162046  0.6172369923326324   T   T   T
  0.9980332986731731  0.0182923404458463  0.6356313174184053   T   T   T
  0.2669491525423737  0.8644067796610173  0.3976208246282127   F   F   F
  0.4194915254237301  0.6440677966101660  0.4162352201503552   F   F   F
  0.3220338983050866  0.4237288135593218  0.4348496156724977   F   F   F
  0.4745762711864430  0.2033898305084776  0.4534640111946402   F   F   F
  0.3758147976260087  0.9883310895563537  0.4647237459469459   T   T   T
  0.2796699510648463  0.7696567311959913  0.4928018373604662   T   T   T
  0.4322331638282794  0.5468140619666885  0.5115058908758617   T   T   T
  0.3339047997648465  0.3307156094468154  0.5275368912556451   T   T   T
  0.4874781465630246  0.1019332056927748  0.5413581136209265   T   T   T
  0.3891934464695267  0.8785578496034030  0.5700834770542316   T   T   T
  0.2915113332619101  0.6637558140404484  0.5865159796573821   T   T   T
  0.4414727668503786  0.4575234770152697  0.6100322962093990   T   T   T
  0.3390071248344205  0.2358027354583363  0.6180605057954782   T   T   T
  0.2470333982005206  0.0189908596155447  0.6368720452610592   T   T   T
  0.5169491525423737  0.8644067796610173  0.3976208246282127   F   F   F
  0.6694915254237301  0.6440677966101660  0.4162352201503552   F   F   F
  0.5720338983050866  0.4237288135593218  0.4348496156724977   F   F   F
  0.7245762711864430  0.2033898305084776  0.4534640111946402   F   F   F
  0.6266155378162744  0.9885929303679550  0.4646344517755774   T   T   T
  0.5281034144097737  0.7703172560412147  0.4925175936070204   T   T   T
  0.6823827579709102  0.5471333441525030  0.5086090164469375   T   T   T
  0.5824027207736673  0.3282268188375039  0.5288709322303864   T   T   T
  0.7341787156360050  0.1039673813500473  0.5420780636047539   T   T   T
  0.6395812626179542  0.8788418780124941  0.5691869865653676   T   T   T
  0.5426600088720892  0.6646220508484975  0.5854141793586816   T   T   T
  0.6974388409402691  0.4530309068632012  0.6011505235825160   T   T   T
  0.5914827168990645  0.2431830839757814  0.6271270316118578   T   T   T
  0.4957379544601803  0.0257495234808591  0.6316689954163083   T   T   T
  0.7669491525423737  0.8644067796610173  0.3976208246282127   F   F   F
  0.9194915254237301  0.6440677966101660  0.4162352201503552   F   F   F
  0.8220338983050866  0.4237288135593218  0.4348496156724977   F   F   F
  0.9745762711864430  0.2033898305084776  0.4534640111946402   F   F   F
  0.8766593178359003  0.9890480872923848  0.4651465722672748   T   T   T
  0.7773787342851461  0.7721080636050861  0.4925447039249432   T   T   T
  0.9310131560082751  0.5489436146365599  0.5086998228141500   T   T   T
  0.8343660775876534  0.3246820571682911  0.5295881101612526   T   T   T
  0.9849690600471093  0.1020967072952452  0.5430683687991541   T   T   T
  0.8890629670932516  0.8813331081544605  0.5698515053550613   T   T   T
  0.7933339506119097  0.6653433561600656  0.5853441744071024   T   T   T
  0.9456904002859207  0.4538431144262574  0.6015550241378755   T   T   T
  0.8499865783040319  0.2423779667680223  0.6246536638668385   T   T   T
  0.7424604230716271  0.0292191665542461  0.6312890383586469   T   T   T
  0.5149878290979166  0.3800686228089623  0.6702622486901979   T   T   T
  0.5154219153463987  0.4012667388717530  0.7120227406835922   T   T   T
  0.1249880049444823  0.9838183487556003  0.6867336593364621   T   T   T
  0.1285368607179415  0.9543080836467417  0.7278097192813103   T   T   T
  0.8454496383546839  0.2663331168101584  0.6953856375930083   T   T   T
  0.9229151420112175  0.2930213948611794  0.7040365757536496   T   T   T
 
  0.00000000E+00  0.00000000E+00  0.00000000E+00
  0.00000000E+00  0.00000000E+00  0.00000000E+00
  0.00000000E+00  0.00000000E+00  0.00000000E+00
  0.00000000E+00  0.00000000E+00  0.00000000E+00
  0.00000000E+00  0.00000000E+00  0.00000000E+00
  0.00000000E+00  0.00000000E+00  0.00000000E+00
  0.00000000E+00  0.00000000E+00  0.00000000E+00
  0.00000000E+00  0.00000000E+00  0.00000000E+00
  0.00000000E+00  0.00000000E+00  0.00000000E+00
  0.00000000E+00  0.00000000E+00  0.00000000E+00
  0.00000000E+00  0.00000000E+00  0.00000000E+00
  0.00000000E+00  0.00000000E+00  0.00000000E+00
  0.00000000E+00  0.00000000E+00  0.00000000E+00
  0.00000000E+00  0.00000000E+00  0.00000000E+00
  0.00000000E+00  0.00000000E+00  0.00000000E+00
  0.00000000E+00  0.00000000E+00  0.00000000E+00
  0.00000000E+00  0.00000000E+00  0.00000000E+00
  0.00000000E+00  0.00000000E+00  0.00000000E+00
  0.00000000E+00  0.00000000E+00  0.00000000E+00
  0.00000000E+00  0.00000000E+00  0.00000000E+00
  0.00000000E+00  0.00000000E+00  0.00000000E+00
  0.00000000E+00  0.00000000E+00  0.00000000E+00
  0.00000000E+00  0.00000000E+00  0.00000000E+00
  0.00000000E+00  0.00000000E+00  0.00000000E+00
  0.00000000E+00  0.00000000E+00  0.00000000E+00
  0.00000000E+00  0.00000000E+00  0.00000000E+00
  0.00000000E+00  0.00000000E+00  0.00000000E+00
  0.00000000E+00  0.00000000E+00  0.00000000E+00
  0.00000000E+00  0.00000000E+00  0.00000000E+00
  0.00000000E+00  0.00000000E+00  0.00000000E+00
  0.00000000E+00  0.00000000E+00  0.00000000E+00
  0.00000000E+00  0.00000000E+00  0.00000000E+00
  0.00000000E+00  0.00000000E+00  0.00000000E+00
  0.00000000E+00  0.00000000E+00  0.00000000E+00
  0.00000000E+00  0.00000000E+00  0.00000000E+00
  0.00000000E+00  0.00000000E+00  0.00000000E+00
  0.00000000E+00  0.00000000E+00  0.00000000E+00
  0.00000000E+00  0.00000000E+00  0.00000000E+00
  0.00000000E+00  0.00000000E+00  0.00000000E+00
  0.00000000E+00  0.00000000E+00  0.00000000E+00
  0.00000000E+00  0.00000000E+00  0.00000000E+00
  0.00000000E+00  0.00000000E+00  0.00000000E+00
  0.00000000E+00  0.00000000E+00  0.00000000E+00
  0.00000000E+00  0.00000000E+00  0.00000000E+00
  0.00000000E+00  0.00000000E+00  0.00000000E+00
  0.00000000E+00  0.00000000E+00  0.00000000E+00
  0.00000000E+00  0.00000000E+00  0.00000000E+00
  0.00000000E+00  0.00000000E+00  0.00000000E+00
  0.00000000E+00  0.00000000E+00  0.00000000E+00
  0.00000000E+00  0.00000000E+00  0.00000000E+00
  0.00000000E+00  0.00000000E+00  0.00000000E+00
  0.00000000E+00  0.00000000E+00  0.00000000E+00
  0.00000000E+00  0.00000000E+00  0.00000000E+00
  0.00000000E+00  0.00000000E+00  0.00000000E+00
  0.00000000E+00  0.00000000E+00  0.00000000E+00
  0.00000000E+00  0.00000000E+00  0.00000000E+00
  0.00000000E+00  0.00000000E+00  0.00000000E+00
  0.00000000E+00  0.00000000E+00  0.00000000E+00
  0.00000000E+00  0.00000000E+00  0.00000000E+00
  0.00000000E+00  0.00000000E+00  0.00000000E+00
  0.00000000E+00  0.00000000E+00  0.00000000E+00
  0.00000000E+00  0.00000000E+00  0.00000000E+00
