Pt  C  O  C  O  H                       
    1.000000000000000     
    11.2213408561008308    0.0000000000000000    0.0000000000000000
     1.4026676070126025   10.7740943252779040    0.0000000000000000
     0.0000000000000000    0.0000000000000000   27.7475611781839042
   Pt   C    O    C    O    H 
    56     1     1     1     2     1
Selective dynamics
Direct
  0.0169491525423737  0.8644067796610173  0.3976208246282127   F   F   F
  0.1694915254237301  0.6440677966101660  0.4162352201503552   F   F   F
  0.0720338983050866  0.4237288135593218  0.4348496156724977   F   F   F
  0.2245762711864430  0.2033898305084776  0.4534640111946402   F   F   F
  0.1273014089276451  0.9881216676673052  0.4656758111446855   T   T   T
  0.0272843266833769  0.7699823704853331  0.4923367668503453   T   T   T
  0.1801327838660073  0.5475629092632001  0.5100213477705291   T   T   T
  0.0856167484978193  0.3287827970680924  0.5283035060688193   T   T   T
  0.2343639840595934  0.1049688896367067  0.5433236891437259   T   T   T
  0.1378611956269614  0.8815378760497901  0.5686676056072394   T   T   T
  0.0409422527640151  0.6655398321083476  0.5848090222715984   T   T   T
  0.1925121808666030  0.4555351100417260  0.6082964007492179   T   T   T
  0.0963169744571778  0.2378864734439305  0.6243308626566976   T   T   T
  0.9953324489662637  0.0269299644741928  0.6315415835205026   T   T   T
  0.2669491525423737  0.8644067796610173  0.3976208246282127   F   F   F
  0.4194915254237301  0.6440677966101660  0.4162352201503552   F   F   F
  0.3220338983050866  0.4237288135593218  0.4348496156724977   F   F   F
  0.4745762711864430  0.2033898305084776  0.4534640111946402   F   F   F
  0.3765757050177771  0.9898908753650969  0.4648194409897564   T   T   T
  0.2778807231577657  0.7703806905740559  0.4919921728911802   T   T   T
  0.4318609655104723  0.5509024442701611  0.5103301438013068   T   T   T
  0.3347394639178131  0.3335459625327796  0.5280548144925893   T   T   T
  0.4898272790304011  0.1023329898826028  0.5429155279478950   T   T   T
  0.3890072134744843  0.8818823765408060  0.5666291102870512   T   T   T
  0.2871172623673886  0.6669242502307817  0.5843005196018830   T   T   T
  0.4416388592059607  0.4569085299271867  0.6100012618483892   T   T   T
  0.3489886919345167  0.2417134703108215  0.6180489492011780   T   T   T
  0.2499468652067242  0.0240441198827734  0.6334836265924276   T   T   T
  0.5169491525423737  0.8644067796610173  0.3976208246282127   F   F   F
  0.6694915254237301  0.6440677966101660  0.4162352201503552   F   F   F
  0.5720338983050866  0.4237288135593218  0.4348496156724977   F   F   F
  0.7245762711864430  0.2033898305084776  0.4534640111946402   F   F   F
  0.6257615595859126  0.9868142987277413  0.4659578576779645   T   T   T
  0.5290979316768268  0.7695074820320978  0.4938018900869922   T   T   T
  0.6800822217626814  0.5505330613150887  0.5103345080042516   T   T   T
  0.5822686539209178  0.3308890217172130  0.5277097027605365   T   T   T
  0.7382609467359339  0.1017418529880028  0.5405768275958407   T   T   T
  0.6401916388996604  0.8770697670185165  0.5702960792893504   T   T   T
  0.5407118838409982  0.6690988961665905  0.5925162315519918   T   T   T
  0.6974654368898536  0.4495279833031197  0.6032113784728209   T   T   T
  0.5943718895138632  0.2378089069674453  0.6192948224179985   T   T   T
  0.4938925338738336  0.0236521616798780  0.6338240938216743   T   T   T
  0.7669491525423737  0.8644067796610173  0.3976208246282127   F   F   F
  0.9194915254237301  0.6440677966101660  0.4162352201503552   F   F   F
  0.8220338983050866  0.4237288135593218  0.4348496156724977   F   F   F
  0.9745762711864430  0.2033898305084776  0.4534640111946402   F   F   F
  0.8767166893820411  0.9875496637402259  0.4646044742731055   T   T   T
  0.7785440999974045  0.7702674725708609  0.4927180519322728   T   T   T
  0.9306333939922024  0.5467647482169670  0.5103187209238632   T   T   T
  0.8343918463205418  0.3306212621094359  0.5274406032631714   T   T   T
  0.9867099468230680  0.1033276305644395  0.5411416562779989   T   T   T
  0.8890740099240176  0.8783279980289976  0.5696437271788208   T   T   T
  0.7931254841180864  0.6630934934539930  0.5867015905251749   T   T   T
  0.9420004449600785  0.4529811739538169  0.6082016266787615   T   T   T
  0.8410899881563938  0.2372792233340685  0.6194681643371949   T   T   T
  0.7466424155971964  0.0244262297065821  0.6313825230403373   T   T   T
  0.4949688771965756  0.5876804803829973  0.6534178782756899   T   T   T
  0.4935937010927501  0.6107299219246444  0.6951944515846409   T   T   T
  0.0741645502707812  0.4068100522301848  0.6617741804256969   T   T   T
  0.0714392045635941  0.4281367227825093  0.7040274914339922   T   T   T
  0.3806968617907128  0.9656483015823757  0.6893224889996167   T   T   T
  0.3929071157067093  0.8747499619435857  0.6907577115546190   T   T   T
 
  0.00000000E+00  0.00000000E+00  0.00000000E+00
  0.00000000E+00  0.00000000E+00  0.00000000E+00
  0.00000000E+00  0.00000000E+00  0.00000000E+00
  0.00000000E+00  0.00000000E+00  0.00000000E+00
  0.00000000E+00  0.00000000E+00  0.00000000E+00
  0.00000000E+00  0.00000000E+00  0.00000000E+00
  0.00000000E+00  0.00000000E+00  0.00000000E+00
  0.00000000E+00  0.00000000E+00  0.00000000E+00
  0.00000000E+00  0.00000000E+00  0.00000000E+00
  0.00000000E+00  0.00000000E+00  0.00000000E+00
  0.00000000E+00  0.00000000E+00  0.00000000E+00
  0.00000000E+00  0.00000000E+00  0.00000000E+00
  0.00000000E+00  0.00000000E+00  0.00000000E+00
  0.00000000E+00  0.00000000E+00  0.00000000E+00
  0.00000000E+00  0.00000000E+00  0.00000000E+00
  0.00000000E+00  0.00000000E+00  0.00000000E+00
  0.00000000E+00  0.00000000E+00  0.00000000E+00
  0.00000000E+00  0.00000000E+00  0.00000000E+00
  0.00000000E+00  0.00000000E+00  0.00000000E+00
  0.00000000E+00  0.00000000E+00  0.00000000E+00
  0.00000000E+00  0.00000000E+00  0.00000000E+00
  0.00000000E+00  0.00000000E+00  0.00000000E+00
  0.00000000E+00  0.00000000E+00  0.00000000E+00
  0.00000000E+00  0.00000000E+00  0.00000000E+00
  0.00000000E+00  0.00000000E+00  0.00000000E+00
  0.00000000E+00  0.00000000E+00  0.00000000E+00
  0.00000000E+00  0.00000000E+00  0.00000000E+00
  0.00000000E+00  0.00000000E+00  0.00000000E+00
  0.00000000E+00  0.00000000E+00  0.00000000E+00
  0.00000000E+00  0.00000000E+00  0.00000000E+00
  0.00000000E+00  0.00000000E+00  0.00000000E+00
  0.00000000E+00  0.00000000E+00  0.00000000E+00
  0.00000000E+00  0.00000000E+00  0.00000000E+00
  0.00000000E+00  0.00000000E+00  0.00000000E+00
  0.00000000E+00  0.00000000E+00  0.00000000E+00
  0.00000000E+00  0.00000000E+00  0.00000000E+00
  0.00000000E+00  0.00000000E+00  0.00000000E+00
  0.00000000E+00  0.00000000E+00  0.00000000E+00
  0.00000000E+00  0.00000000E+00  0.00000000E+00
  0.00000000E+00  0.00000000E+00  0.00000000E+00
  0.00000000E+00  0.00000000E+00  0.00000000E+00
  0.00000000E+00  0.00000000E+00  0.00000000E+00
  0.00000000E+00  0.00000000E+00  0.00000000E+00
  0.00000000E+00  0.00000000E+00  0.00000000E+00
  0.00000000E+00  0.00000000E+00  0.00000000E+00
  0.00000000E+00  0.00000000E+00  0.00000000E+00
  0.00000000E+00  0.00000000E+00  0.00000000E+00
  0.00000000E+00  0.00000000E+00  0.00000000E+00
  0.00000000E+00  0.00000000E+00  0.00000000E+00
  0.00000000E+00  0.00000000E+00  0.00000000E+00
  0.00000000E+00  0.00000000E+00  0.00000000E+00
  0.00000000E+00  0.00000000E+00  0.00000000E+00
  0.00000000E+00  0.00000000E+00  0.00000000E+00
  0.00000000E+00  0.00000000E+00  0.00000000E+00
  0.00000000E+00  0.00000000E+00  0.00000000E+00
  0.00000000E+00  0.00000000E+00  0.00000000E+00
  0.00000000E+00  0.00000000E+00  0.00000000E+00
  0.00000000E+00  0.00000000E+00  0.00000000E+00
  0.00000000E+00  0.00000000E+00  0.00000000E+00
  0.00000000E+00  0.00000000E+00  0.00000000E+00
  0.00000000E+00  0.00000000E+00  0.00000000E+00
  0.00000000E+00  0.00000000E+00  0.00000000E+00
