Pt  C  O  C  O  H                       
    1.000000000000000     
    11.2213408561008308    0.0000000000000000    0.0000000000000000
     1.4026676070126025   10.7740943252779040    0.0000000000000000
     0.0000000000000000    0.0000000000000000   27.7475611781839042
   Pt   C    O    C    O    H 
    56     1     1     1     2     1
Selective dynamics
Direct
  0.0169491525423737  0.8644067796610173  0.3976208246282127   F   F   F
  0.1694915254237301  0.6440677966101660  0.4162352201503552   F   F   F
  0.0720338983050866  0.4237288135593218  0.4348496156724977   F   F   F
  0.2245762711864430  0.2033898305084776  0.4534640111946402   F   F   F
  0.1262891775307224  0.9875774231904219  0.4648094279442436   T   T   T
  0.0265719070526295  0.7692116184266506  0.4923871093889483   T   T   T
  0.1804906432330253  0.5487586315179493  0.5098753109219183   T   T   T
  0.0819376871796510  0.3294910685091988  0.5285017026817135   T   T   T
  0.2335861994865475  0.1065809295171933  0.5409794887003115   T   T   T
  0.1365919123809086  0.8802252713215998  0.5681776027269184   T   T   T
  0.0400314934703415  0.6641031231356530  0.5853944563813871   T   T   T
  0.1905121766098546  0.4533278597913541  0.6030866856203924   T   T   T
  0.0932261278040421  0.2423671237804010  0.6258726914870069   T   T   T
  0.9925384877752840  0.0250539070419309  0.6300455044668359   T   T   T
  0.2669491525423737  0.8644067796610173  0.3976208246282127   F   F   F
  0.4194915254237301  0.6440677966101660  0.4162352201503552   F   F   F
  0.3220338983050866  0.4237288135593218  0.4348496156724977   F   F   F
  0.4745762711864430  0.2033898305084776  0.4534640111946402   F   F   F
  0.3758033825302330  0.9884358270312630  0.4642462320785532   T   T   T
  0.2770956265645244  0.7695702588818583  0.4927802567293576   T   T   T
  0.4293303385680538  0.5500399300199573  0.5105445057039636   T   T   T
  0.3331450152509602  0.3312382056269431  0.5283087253270889   T   T   T
  0.4850760132411902  0.1035794321603718  0.5405086688682945   T   T   T
  0.3854362560426427  0.8846557481216741  0.5672492742979131   T   T   T
  0.2871392376855444  0.6698966371400092  0.5902048798006382   T   T   T
  0.4390155662142936  0.4550449813894138  0.6093708058227300   T   T   T
  0.3411717134202313  0.2427541307669938  0.6210787965488922   T   T   T
  0.2424780849277471  0.0289858017876726  0.6305532706972139   T   T   T
  0.5169491525423737  0.8644067796610173  0.3976208246282127   F   F   F
  0.6694915254237301  0.6440677966101660  0.4162352201503552   F   F   F
  0.5720338983050866  0.4237288135593218  0.4348496156724977   F   F   F
  0.7245762711864430  0.2033898305084776  0.4534640111946402   F   F   F
  0.6265571691721646  0.9878565553545892  0.4643601047725373   T   T   T
  0.5268614806578374  0.7703039600487902  0.4927765082611520   T   T   T
  0.6791876019230703  0.5510412488519019  0.5113065006360548   T   T   T
  0.5801606370755382  0.3315579827198170  0.5278864266849703   T   T   T
  0.7356152406443223  0.1066466320524013  0.5410932662476134   T   T   T
  0.6362599734786648  0.8827189996378000  0.5671920387977888   T   T   T
  0.5354851729229998  0.6703776184626989  0.5893771475337081   T   T   T
  0.6875562669699554  0.4525587416729185  0.6024594989954509   T   T   T
  0.5905518657082693  0.2423904753721531  0.6209604345960990   T   T   T
  0.4928188181615165  0.0287825891728110  0.6307867348206977   T   T   T
  0.7669491525423737  0.8644067796610173  0.3976208246282127   F   F   F
  0.9194915254237301  0.6440677966101660  0.4162352201503552   F   F   F
  0.8220338983050866  0.4237288135593218  0.4348496156724977   F   F   F
  0.9745762711864430  0.2033898305084776  0.4534640111946402   F   F   F
  0.8757371254201244  0.9880491502382989  0.4644597113931476   T   T   T
  0.7770947724640039  0.7680031594997342  0.4931859263093460   T   T   T
  0.9291995502025424  0.5475184787522497  0.5115494850646691   T   T   T
  0.8315466564070800  0.3298190334154757  0.5284426461163724   T   T   T
  0.9847582855058354  0.1040302373888850  0.5410389727375984   T   T   T
  0.8871186863000015  0.8807386916937859  0.5673030044194552   T   T   T
  0.7866796465722151  0.6689752945402232  0.5908921436162560   T   T   T
  0.9392271622205824  0.4561265968937470  0.6076354121065713   T   T   T
  0.8383148137003047  0.2419247458736669  0.6257968195939907   T   T   T
  0.7433504509761386  0.0267548812920352  0.6303938500352952   T   T   T
  0.4179624845834548  0.6271502658238985  0.6445311626389242   T   T   T
  0.4152206013686625  0.6548337603228794  0.6861938350453598   T   T   T
  0.9535960005505500  0.3371914146639103  0.6671287376106090   T   T   T
  0.9510421988792475  0.3577505480033670  0.7095553319217019   T   T   T
  0.7810003022768031  0.7140563198629588  0.6603604041411792   T   T   T
  0.8476166300682999  0.6617355189456720  0.6760818430841588   T   T   T
 
  0.00000000E+00  0.00000000E+00  0.00000000E+00
  0.00000000E+00  0.00000000E+00  0.00000000E+00
  0.00000000E+00  0.00000000E+00  0.00000000E+00
  0.00000000E+00  0.00000000E+00  0.00000000E+00
  0.00000000E+00  0.00000000E+00  0.00000000E+00
  0.00000000E+00  0.00000000E+00  0.00000000E+00
  0.00000000E+00  0.00000000E+00  0.00000000E+00
  0.00000000E+00  0.00000000E+00  0.00000000E+00
  0.00000000E+00  0.00000000E+00  0.00000000E+00
  0.00000000E+00  0.00000000E+00  0.00000000E+00
  0.00000000E+00  0.00000000E+00  0.00000000E+00
  0.00000000E+00  0.00000000E+00  0.00000000E+00
  0.00000000E+00  0.00000000E+00  0.00000000E+00
  0.00000000E+00  0.00000000E+00  0.00000000E+00
  0.00000000E+00  0.00000000E+00  0.00000000E+00
  0.00000000E+00  0.00000000E+00  0.00000000E+00
  0.00000000E+00  0.00000000E+00  0.00000000E+00
  0.00000000E+00  0.00000000E+00  0.00000000E+00
  0.00000000E+00  0.00000000E+00  0.00000000E+00
  0.00000000E+00  0.00000000E+00  0.00000000E+00
  0.00000000E+00  0.00000000E+00  0.00000000E+00
  0.00000000E+00  0.00000000E+00  0.00000000E+00
  0.00000000E+00  0.00000000E+00  0.00000000E+00
  0.00000000E+00  0.00000000E+00  0.00000000E+00
  0.00000000E+00  0.00000000E+00  0.00000000E+00
  0.00000000E+00  0.00000000E+00  0.00000000E+00
  0.00000000E+00  0.00000000E+00  0.00000000E+00
  0.00000000E+00  0.00000000E+00  0.00000000E+00
  0.00000000E+00  0.00000000E+00  0.00000000E+00
  0.00000000E+00  0.00000000E+00  0.00000000E+00
  0.00000000E+00  0.00000000E+00  0.00000000E+00
  0.00000000E+00  0.00000000E+00  0.00000000E+00
  0.00000000E+00  0.00000000E+00  0.00000000E+00
  0.00000000E+00  0.00000000E+00  0.00000000E+00
  0.00000000E+00  0.00000000E+00  0.00000000E+00
  0.00000000E+00  0.00000000E+00  0.00000000E+00
  0.00000000E+00  0.00000000E+00  0.00000000E+00
  0.00000000E+00  0.00000000E+00  0.00000000E+00
  0.00000000E+00  0.00000000E+00  0.00000000E+00
  0.00000000E+00  0.00000000E+00  0.00000000E+00
  0.00000000E+00  0.00000000E+00  0.00000000E+00
  0.00000000E+00  0.00000000E+00  0.00000000E+00
  0.00000000E+00  0.00000000E+00  0.00000000E+00
  0.00000000E+00  0.00000000E+00  0.00000000E+00
  0.00000000E+00  0.00000000E+00  0.00000000E+00
  0.00000000E+00  0.00000000E+00  0.00000000E+00
  0.00000000E+00  0.00000000E+00  0.00000000E+00
  0.00000000E+00  0.00000000E+00  0.00000000E+00
  0.00000000E+00  0.00000000E+00  0.00000000E+00
  0.00000000E+00  0.00000000E+00  0.00000000E+00
  0.00000000E+00  0.00000000E+00  0.00000000E+00
  0.00000000E+00  0.00000000E+00  0.00000000E+00
  0.00000000E+00  0.00000000E+00  0.00000000E+00
  0.00000000E+00  0.00000000E+00  0.00000000E+00
  0.00000000E+00  0.00000000E+00  0.00000000E+00
  0.00000000E+00  0.00000000E+00  0.00000000E+00
  0.00000000E+00  0.00000000E+00  0.00000000E+00
  0.00000000E+00  0.00000000E+00  0.00000000E+00
  0.00000000E+00  0.00000000E+00  0.00000000E+00
  0.00000000E+00  0.00000000E+00  0.00000000E+00
  0.00000000E+00  0.00000000E+00  0.00000000E+00
  0.00000000E+00  0.00000000E+00  0.00000000E+00
