Pt  C  O  C  O  H                       
    1.000000000000000     
    11.2213408561008308    0.0000000000000000    0.0000000000000000
     1.4026676070126025   10.7740943252779040    0.0000000000000000
     0.0000000000000000    0.0000000000000000   27.7475611781839042
   Pt   C    O    C    O    H 
    56     1     1     1     2     1
Selective dynamics
Direct
  0.0169491525423737  0.8644067796610173  0.3976208246282127   F   F   F
  0.1694915254237301  0.6440677966101660  0.4162352201503552   F   F   F
  0.0720338983050866  0.4237288135593218  0.4348496156724977   F   F   F
  0.2245762711864430  0.2033898305084776  0.4534640111946402   F   F   F
  0.1269927580901982  0.9891768312484250  0.4640834942054429   T   T   T
  0.0283083172193558  0.7696121512869529  0.4922322302679533   T   T   T
  0.1820266965464561  0.5464385450614871  0.5091298655443042   T   T   T
  0.0833985951829318  0.3283223745227824  0.5293961606373407   T   T   T
  0.2364862196222988  0.1068725074546558  0.5421407566105295   T   T   T
  0.1396858502016784  0.8808623510264981  0.5676976625337461   T   T   T
  0.0429541839891553  0.6644636517087248  0.5852251407832331   T   T   T
  0.1967716922980897  0.4556462318908878  0.6030703336705183   T   T   T
  0.0966077814887722  0.2460747074193305  0.6271343761838182   T   T   T
  0.9969279084359870  0.0285064069399715  0.6301603240952535   T   T   T
  0.2669491525423737  0.8644067796610173  0.3976208246282127   F   F   F
  0.4194915254237301  0.6440677966101660  0.4162352201503552   F   F   F
  0.3220338983050866  0.4237288135593218  0.4348496156724977   F   F   F
  0.4745762711864430  0.2033898305084776  0.4534640111946402   F   F   F
  0.3769796055071329  0.9902271696236739  0.4646897765514026   T   T   T
  0.2790384262629090  0.7713463441751128  0.4923506479899148   T   T   T
  0.4312665645702223  0.5469371374752344  0.5091026584544589   T   T   T
  0.3345150751857699  0.3265921575973068  0.5285922817289151   T   T   T
  0.4875730623390305  0.1033397450663823  0.5442899475498258   T   T   T
  0.3890430687532435  0.8840749750727089  0.5685309679913301   T   T   T
  0.2917899306807804  0.6685165829472760  0.5853757842552202   T   T   T
  0.4427812272045187  0.4589994504424730  0.6028240838956090   T   T   T
  0.3449844720855315  0.2417936328808440  0.6260657468056816   T   T   T
  0.2407723582618087  0.0286075951511706  0.6310489796675455   T   T   T
  0.5169491525423737  0.8644067796610173  0.3976208246282127   F   F   F
  0.6694915254237301  0.6440677966101660  0.4162352201503552   F   F   F
  0.5720338983050866  0.4237288135593218  0.4348496156724977   F   F   F
  0.7245762711864430  0.2033898305084776  0.4534640111946402   F   F   F
  0.6254472933929751  0.9900604410325818  0.4648970810991144   T   T   T
  0.5285573119177108  0.7718905279752935  0.4921245845761716   T   T   T
  0.6811363166435095  0.5474076327509533  0.5090156653437360   T   T   T
  0.5835462817715843  0.3275312861580998  0.5284716994074680   T   T   T
  0.7373270958953893  0.1073893539719170  0.5419823063700877   T   T   T
  0.6414142238676985  0.8831925687615927  0.5681980771271584   T   T   T
  0.5413377047064053  0.6686819573290594  0.5846631789542115   T   T   T
  0.6896744269059781  0.4557907563734262  0.6027699536485501   T   T   T
  0.5951325386887698  0.2412334769787599  0.6260684439741936   T   T   T
  0.5009416857894919  0.0166770461308274  0.6339230236456945   T   T   T
  0.7669491525423737  0.8644067796610173  0.3976208246282127   F   F   F
  0.9194915254237301  0.6440677966101660  0.4162352201503552   F   F   F
  0.8220338983050866  0.4237288135593218  0.4348496156724977   F   F   F
  0.9745762711864430  0.2033898305084776  0.4534640111946402   F   F   F
  0.8758032703578313  0.9888909413419201  0.4643653536694892   T   T   T
  0.7784362396406792  0.7703957496325617  0.4923509862017092   T   T   T
  0.9317600381204385  0.5449422792062144  0.5110309139028595   T   T   T
  0.8345972053657340  0.3287305028238206  0.5292727719329081   T   T   T
  0.9872179979845227  0.1029541927801300  0.5406959104337312   T   T   T
  0.8912255991935687  0.8797233862792750  0.5680962038144919   T   T   T
  0.7914222129798522  0.6657083189667394  0.5851980874957575   T   T   T
  0.9424450291146581  0.4601301465721563  0.6089066395515647   T   T   T
  0.8422487636602256  0.2462344440323718  0.6268164315387553   T   T   T
  0.7542910957664193  0.0279854911971387  0.6310173574764434   T   T   T
  0.4641395224881204  0.2871198848612150  0.6751802514939789   T   T   T
  0.4605308018987705  0.3157772099166465  0.7163525447605638   T   T   T
  0.9575407039738456  0.3430956366394863  0.6683055398435819   T   T   T
  0.9548938683693939  0.3620949124892615  0.7107968311752181   T   T   T
  0.4983355098957372  0.9515298267824812  0.7001321066585036   T   T   T
  0.5802362696906136  0.9349580543462355  0.7127794579267221   T   T   T
 
  0.00000000E+00  0.00000000E+00  0.00000000E+00
  0.00000000E+00  0.00000000E+00  0.00000000E+00
  0.00000000E+00  0.00000000E+00  0.00000000E+00
  0.00000000E+00  0.00000000E+00  0.00000000E+00
  0.00000000E+00  0.00000000E+00  0.00000000E+00
  0.00000000E+00  0.00000000E+00  0.00000000E+00
  0.00000000E+00  0.00000000E+00  0.00000000E+00
  0.00000000E+00  0.00000000E+00  0.00000000E+00
  0.00000000E+00  0.00000000E+00  0.00000000E+00
  0.00000000E+00  0.00000000E+00  0.00000000E+00
  0.00000000E+00  0.00000000E+00  0.00000000E+00
  0.00000000E+00  0.00000000E+00  0.00000000E+00
  0.00000000E+00  0.00000000E+00  0.00000000E+00
  0.00000000E+00  0.00000000E+00  0.00000000E+00
  0.00000000E+00  0.00000000E+00  0.00000000E+00
  0.00000000E+00  0.00000000E+00  0.00000000E+00
  0.00000000E+00  0.00000000E+00  0.00000000E+00
  0.00000000E+00  0.00000000E+00  0.00000000E+00
  0.00000000E+00  0.00000000E+00  0.00000000E+00
  0.00000000E+00  0.00000000E+00  0.00000000E+00
  0.00000000E+00  0.00000000E+00  0.00000000E+00
  0.00000000E+00  0.00000000E+00  0.00000000E+00
  0.00000000E+00  0.00000000E+00  0.00000000E+00
  0.00000000E+00  0.00000000E+00  0.00000000E+00
  0.00000000E+00  0.00000000E+00  0.00000000E+00
  0.00000000E+00  0.00000000E+00  0.00000000E+00
  0.00000000E+00  0.00000000E+00  0.00000000E+00
  0.00000000E+00  0.00000000E+00  0.00000000E+00
  0.00000000E+00  0.00000000E+00  0.00000000E+00
  0.00000000E+00  0.00000000E+00  0.00000000E+00
  0.00000000E+00  0.00000000E+00  0.00000000E+00
  0.00000000E+00  0.00000000E+00  0.00000000E+00
  0.00000000E+00  0.00000000E+00  0.00000000E+00
  0.00000000E+00  0.00000000E+00  0.00000000E+00
  0.00000000E+00  0.00000000E+00  0.00000000E+00
  0.00000000E+00  0.00000000E+00  0.00000000E+00
  0.00000000E+00  0.00000000E+00  0.00000000E+00
  0.00000000E+00  0.00000000E+00  0.00000000E+00
  0.00000000E+00  0.00000000E+00  0.00000000E+00
  0.00000000E+00  0.00000000E+00  0.00000000E+00
  0.00000000E+00  0.00000000E+00  0.00000000E+00
  0.00000000E+00  0.00000000E+00  0.00000000E+00
  0.00000000E+00  0.00000000E+00  0.00000000E+00
  0.00000000E+00  0.00000000E+00  0.00000000E+00
  0.00000000E+00  0.00000000E+00  0.00000000E+00
  0.00000000E+00  0.00000000E+00  0.00000000E+00
  0.00000000E+00  0.00000000E+00  0.00000000E+00
  0.00000000E+00  0.00000000E+00  0.00000000E+00
  0.00000000E+00  0.00000000E+00  0.00000000E+00
  0.00000000E+00  0.00000000E+00  0.00000000E+00
  0.00000000E+00  0.00000000E+00  0.00000000E+00
  0.00000000E+00  0.00000000E+00  0.00000000E+00
  0.00000000E+00  0.00000000E+00  0.00000000E+00
  0.00000000E+00  0.00000000E+00  0.00000000E+00
  0.00000000E+00  0.00000000E+00  0.00000000E+00
  0.00000000E+00  0.00000000E+00  0.00000000E+00
  0.00000000E+00  0.00000000E+00  0.00000000E+00
  0.00000000E+00  0.00000000E+00  0.00000000E+00
  0.00000000E+00  0.00000000E+00  0.00000000E+00
  0.00000000E+00  0.00000000E+00  0.00000000E+00
  0.00000000E+00  0.00000000E+00  0.00000000E+00
  0.00000000E+00  0.00000000E+00  0.00000000E+00
