Pt  C  O  C  O  H                       
    1.000000000000000     
    11.2213408561008308    0.0000000000000000    0.0000000000000000
     1.4026676070126025   10.7740943252779040    0.0000000000000000
     0.0000000000000000    0.0000000000000000   27.7475611781839042
   Pt   C    O    C    O    H 
    56     1     1     1     2     1
Selective dynamics
Direct
  0.0169491525423737  0.8644067796610173  0.3976208246282127   F   F   F
  0.1694915254237301  0.6440677966101660  0.4162352201503552   F   F   F
  0.0720338983050866  0.4237288135593218  0.4348496156724977   F   F   F
  0.2245762711864430  0.2033898305084776  0.4534640111946402   F   F   F
  0.1276685828092234  0.9893055689236071  0.4654037491662698   T   T   T
  0.0287055825547744  0.7702510596872303  0.4924528217960544   T   T   T
  0.1808513263866431  0.5485454111579325  0.5090310295852770   T   T   T
  0.0841518117897423  0.3277632063626813  0.5283473682437682   T   T   T
  0.2348593898943401  0.1041471036195876  0.5444797617516720   T   T   T
  0.1393900498253285  0.8818850533241720  0.5688267516720281   T   T   T
  0.0430208321145985  0.6651844923666075  0.5854996424511901   T   T   T
  0.1946440614484782  0.4545629618221201  0.6027923918005503   T   T   T
  0.0949348371751245  0.2402276773678955  0.6243161004162614   T   T   T
  0.9905515068425514  0.0241154643105912  0.6305121050305976   T   T   T
  0.2669491525423737  0.8644067796610173  0.3976208246282127   F   F   F
  0.4194915254237301  0.6440677966101660  0.4162352201503552   F   F   F
  0.3220338983050866  0.4237288135593218  0.4348496156724977   F   F   F
  0.4745762711864430  0.2033898305084776  0.4534640111946402   F   F   F
  0.3752844937642119  0.9900595173152938  0.4645447907620467   T   T   T
  0.2790327705328565  0.7704524626148719  0.4924423761280646   T   T   T
  0.4327291075899786  0.5466264177615431  0.5111221241730102   T   T   T
  0.3339307858097259  0.3305139758719966  0.5271762718723935   T   T   T
  0.4874809493811811  0.1042041137486874  0.5411539891319983   T   T   T
  0.3893320188103054  0.8828082884461186  0.5688919096208725   T   T   T
  0.2919207739717924  0.6663496335073443  0.5854060269825601   T   T   T
  0.4412021231555116  0.4559356829396482  0.6091813646281417   T   T   T
  0.3391400885113867  0.2354925434315550  0.6181838354378113   T   T   T
  0.2472743303625901  0.0224114886187360  0.6353113998076927   T   T   T
  0.5169491525423737  0.8644067796610173  0.3976208246282127   F   F   F
  0.6694915254237301  0.6440677966101660  0.4162352201503552   F   F   F
  0.5720338983050866  0.4237288135593218  0.4348496156724977   F   F   F
  0.7245762711864430  0.2033898305084776  0.4534640111946402   F   F   F
  0.6260093592217851  0.9882354995488013  0.4645906350024803   T   T   T
  0.5272955366406840  0.7707319759392957  0.4923681244140172   T   T   T
  0.6817979202616582  0.5459057746432255  0.5091465139209619   T   T   T
  0.5844593942153755  0.3278437126496203  0.5292064210014622   T   T   T
  0.7367973211541775  0.1045994149010428  0.5411403467613048   T   T   T
  0.6408711513158732  0.8803048046372094  0.5682976778896139   T   T   T
  0.5409975098851282  0.6666855341910606  0.5850442686857485   T   T   T
  0.6942286016577399  0.4560865063679519  0.6023981496129348   T   T   T
  0.5945588131005063  0.2461876464012837  0.6299158024632555   T   T   T
  0.5018213883849025  0.0273406476503700  0.6309132882544057   T   T   T
  0.7669491525423737  0.8644067796610173  0.3976208246282127   F   F   F
  0.9194915254237301  0.6440677966101660  0.4162352201503552   F   F   F
  0.8220338983050866  0.4237288135593218  0.4348496156724977   F   F   F
  0.9745762711864430  0.2033898305084776  0.4534640111946402   F   F   F
  0.8765837850601511  0.9880954859071138  0.4640414912599419   T   T   T
  0.7780566607876482  0.7692068778402011  0.4924716980186129   T   T   T
  0.9308603077968332  0.5453366358333656  0.5108952192864028   T   T   T
  0.8349622019540294  0.3267755347518083  0.5294801913566678   T   T   T
  0.9855200188238274  0.1025774973141035  0.5413663244221363   T   T   T
  0.8883095787994296  0.8791037187528096  0.5684051232393013   T   T   T
  0.7928631531152072  0.6646153083176838  0.5857827252663506   T   T   T
  0.9441475303141494  0.4581085348692789  0.6084828485225456   T   T   T
  0.8432670306488763  0.2450299650330257  0.6278447293512676   T   T   T
  0.7448572358030744  0.0322669220650535  0.6306450424686870   T   T   T
  0.5113222148811195  0.3834493339594006  0.6708707254894013   T   T   T
  0.5081063712249706  0.4071304545499405  0.7124847354815390   T   T   T
  0.9615867035507346  0.3377857985691890  0.6680679173061991   T   T   T
  0.9621272868011195  0.3573852877346637  0.7104461187485864   T   T   T
  0.2483579379911018  0.9566652725037607  0.7012656611850758   T   T   T
  0.3316313495007899  0.9344196819702247  0.7119342230441763   T   T   T
 
  0.00000000E+00  0.00000000E+00  0.00000000E+00
  0.00000000E+00  0.00000000E+00  0.00000000E+00
  0.00000000E+00  0.00000000E+00  0.00000000E+00
  0.00000000E+00  0.00000000E+00  0.00000000E+00
  0.00000000E+00  0.00000000E+00  0.00000000E+00
  0.00000000E+00  0.00000000E+00  0.00000000E+00
  0.00000000E+00  0.00000000E+00  0.00000000E+00
  0.00000000E+00  0.00000000E+00  0.00000000E+00
  0.00000000E+00  0.00000000E+00  0.00000000E+00
  0.00000000E+00  0.00000000E+00  0.00000000E+00
  0.00000000E+00  0.00000000E+00  0.00000000E+00
  0.00000000E+00  0.00000000E+00  0.00000000E+00
  0.00000000E+00  0.00000000E+00  0.00000000E+00
  0.00000000E+00  0.00000000E+00  0.00000000E+00
  0.00000000E+00  0.00000000E+00  0.00000000E+00
  0.00000000E+00  0.00000000E+00  0.00000000E+00
  0.00000000E+00  0.00000000E+00  0.00000000E+00
  0.00000000E+00  0.00000000E+00  0.00000000E+00
  0.00000000E+00  0.00000000E+00  0.00000000E+00
  0.00000000E+00  0.00000000E+00  0.00000000E+00
  0.00000000E+00  0.00000000E+00  0.00000000E+00
  0.00000000E+00  0.00000000E+00  0.00000000E+00
  0.00000000E+00  0.00000000E+00  0.00000000E+00
  0.00000000E+00  0.00000000E+00  0.00000000E+00
  0.00000000E+00  0.00000000E+00  0.00000000E+00
  0.00000000E+00  0.00000000E+00  0.00000000E+00
  0.00000000E+00  0.00000000E+00  0.00000000E+00
  0.00000000E+00  0.00000000E+00  0.00000000E+00
  0.00000000E+00  0.00000000E+00  0.00000000E+00
  0.00000000E+00  0.00000000E+00  0.00000000E+00
  0.00000000E+00  0.00000000E+00  0.00000000E+00
  0.00000000E+00  0.00000000E+00  0.00000000E+00
  0.00000000E+00  0.00000000E+00  0.00000000E+00
  0.00000000E+00  0.00000000E+00  0.00000000E+00
  0.00000000E+00  0.00000000E+00  0.00000000E+00
  0.00000000E+00  0.00000000E+00  0.00000000E+00
  0.00000000E+00  0.00000000E+00  0.00000000E+00
  0.00000000E+00  0.00000000E+00  0.00000000E+00
  0.00000000E+00  0.00000000E+00  0.00000000E+00
  0.00000000E+00  0.00000000E+00  0.00000000E+00
  0.00000000E+00  0.00000000E+00  0.00000000E+00
  0.00000000E+00  0.00000000E+00  0.00000000E+00
  0.00000000E+00  0.00000000E+00  0.00000000E+00
  0.00000000E+00  0.00000000E+00  0.00000000E+00
  0.00000000E+00  0.00000000E+00  0.00000000E+00
  0.00000000E+00  0.00000000E+00  0.00000000E+00
  0.00000000E+00  0.00000000E+00  0.00000000E+00
  0.00000000E+00  0.00000000E+00  0.00000000E+00
  0.00000000E+00  0.00000000E+00  0.00000000E+00
  0.00000000E+00  0.00000000E+00  0.00000000E+00
  0.00000000E+00  0.00000000E+00  0.00000000E+00
  0.00000000E+00  0.00000000E+00  0.00000000E+00
  0.00000000E+00  0.00000000E+00  0.00000000E+00
  0.00000000E+00  0.00000000E+00  0.00000000E+00
  0.00000000E+00  0.00000000E+00  0.00000000E+00
  0.00000000E+00  0.00000000E+00  0.00000000E+00
  0.00000000E+00  0.00000000E+00  0.00000000E+00
  0.00000000E+00  0.00000000E+00  0.00000000E+00
  0.00000000E+00  0.00000000E+00  0.00000000E+00
  0.00000000E+00  0.00000000E+00  0.00000000E+00
  0.00000000E+00  0.00000000E+00  0.00000000E+00
  0.00000000E+00  0.00000000E+00  0.00000000E+00
