Pt  C  O  C  O  H                       
    1.000000000000000     
    11.2213408561008308    0.0000000000000000    0.0000000000000000
     1.4026676070126025   10.7740943252779040    0.0000000000000000
     0.0000000000000000    0.0000000000000000   27.7475611781839042
   Pt   C    O    C    O    H 
    56     1     1     1     2     1
Selective dynamics
Direct
  0.0169491525423737  0.8644067796610173  0.3976208246282127   F   F   F
  0.1694915254237301  0.6440677966101660  0.4162352201503552   F   F   F
  0.0720338983050866  0.4237288135593218  0.4348496156724977   F   F   F
  0.2245762711864430  0.2033898305084776  0.4534640111946402   F   F   F
  0.1264863233419859  0.9888943015645405  0.4645047688121717   T   T   T
  0.0286031779490474  0.7736770198113845  0.4919663628146215   T   T   T
  0.1807792081900164  0.5523651639152044  0.5091158085192714   T   T   T
  0.0814971957939875  0.3316341198686535  0.5265872277598226   T   T   T
  0.2388061959119227  0.1011437812205341  0.5408748795884084   T   T   T
  0.1364146113159138  0.8862278864490581  0.5684990802358322   T   T   T
  0.0329039472613266  0.6701471523696974  0.5840531860505666   T   T   T
  0.1848442548637524  0.4537685455030678  0.6019663893600545   T   T   T
  0.0886872545412601  0.2474248277350682  0.6195392921793060   T   T   T
  0.9992341597192382  0.0315837614496203  0.6323688145366120   T   T   T
  0.2669491525423737  0.8644067796610173  0.3976208246282127   F   F   F
  0.4194915254237301  0.6440677966101660  0.4162352201503552   F   F   F
  0.3220338983050866  0.4237288135593218  0.4348496156724977   F   F   F
  0.4745762711864430  0.2033898305084776  0.4534640111946402   F   F   F
  0.3773061093347084  0.9873868267107698  0.4658198713823319   T   T   T
  0.2786246012430760  0.7737168791111956  0.4952289942609539   T   T   T
  0.4296322770262063  0.5536045792193330  0.5102116447577905   T   T   T
  0.3325075240681795  0.3315756401635085  0.5269154114475708   T   T   T
  0.4846346165556605  0.1070603095766278  0.5412063067370848   T   T   T
  0.3880846477595049  0.8771902431227597  0.5787101947617546   T   T   T
  0.2776353880069741  0.6658137271199088  0.5893135914245703   T   T   T
  0.4408295381156829  0.4570500221160556  0.6016046385256868   T   T   T
  0.3399800617107718  0.2502815888183820  0.6206085724570345   T   T   T
  0.2408684760242418  0.0391388693299153  0.6327382634733523   T   T   T
  0.5169491525423737  0.8644067796610173  0.3976208246282127   F   F   F
  0.6694915254237301  0.6440677966101660  0.4162352201503552   F   F   F
  0.5720338983050866  0.4237288135593218  0.4348496156724977   F   F   F
  0.7245762711864430  0.2033898305084776  0.4534640111946402   F   F   F
  0.6270225621546069  0.9899589250361099  0.4657058109331811   T   T   T
  0.5255689874961669  0.7748100130007101  0.4931258115976842   T   T   T
  0.6783763937435187  0.5538444596211923  0.5102536397331668   T   T   T
  0.5834182144061792  0.3327331376177974  0.5265902008406252   T   T   T
  0.7361606900470572  0.1081044618816667  0.5457496408749082   T   T   T
  0.6402040111828861  0.8902523812375116  0.5676959746017040   T   T   T
  0.5488339907784616  0.6669743441878954  0.5884594285814976   T   T   T
  0.6938428272829920  0.4565438191117925  0.6037450043571534   T   T   T
  0.5928401110637816  0.2477227240662330  0.6193014707260894   T   T   T
  0.4902446668594975  0.0416840360700254  0.6324110098632750   T   T   T
  0.7669491525423737  0.8644067796610173  0.3976208246282127   F   F   F
  0.9194915254237301  0.6440677966101660  0.4162352201503552   F   F   F
  0.8220338983050866  0.4237288135593218  0.4348496156724977   F   F   F
  0.9745762711864430  0.2033898305084776  0.4534640111946402   F   F   F
  0.8751558692414205  0.9907077846830770  0.4658263490491557   T   T   T
  0.7771424822232432  0.7737347614715088  0.4924908336532381   T   T   T
  0.9283809376466942  0.5504879300626113  0.5086023824061907   T   T   T
  0.8320539235274235  0.3302398744320938  0.5269495370250276   T   T   T
  0.9878401874950319  0.1057912937204599  0.5414291576164244   T   T   T
  0.8874475230000352  0.8872689014154516  0.5692505409981661   T   T   T
  0.7918727759331029  0.6711157127279608  0.5856844360135758   T   T   T
  0.9386673262846394  0.4588868878696625  0.6036442804936523   T   T   T
  0.8433337112789125  0.2452898804219903  0.6195773009234768   T   T   T
  0.7454800428662085  0.0299963571658520  0.6368406796001029   T   T   T
  0.4736774217870762  0.7786112188791183  0.6375316568104428   T   T   T
  0.4695562903666083  0.7954607139075318  0.6797265474805748   T   T   T
  0.7521617123536043  0.9773956324661273  0.7004895642369970   T   T   T
  0.7569933655299999  0.9446392734941997  0.7403053635316739   T   T   T
  0.2455894395420154  0.6822667158547323  0.6601841915836163   T   T   T
  0.2975940975293127  0.6145782974037159  0.6758895081064358   T   T   T
 
  0.00000000E+00  0.00000000E+00  0.00000000E+00
  0.00000000E+00  0.00000000E+00  0.00000000E+00
  0.00000000E+00  0.00000000E+00  0.00000000E+00
  0.00000000E+00  0.00000000E+00  0.00000000E+00
  0.00000000E+00  0.00000000E+00  0.00000000E+00
  0.00000000E+00  0.00000000E+00  0.00000000E+00
  0.00000000E+00  0.00000000E+00  0.00000000E+00
  0.00000000E+00  0.00000000E+00  0.00000000E+00
  0.00000000E+00  0.00000000E+00  0.00000000E+00
  0.00000000E+00  0.00000000E+00  0.00000000E+00
  0.00000000E+00  0.00000000E+00  0.00000000E+00
  0.00000000E+00  0.00000000E+00  0.00000000E+00
  0.00000000E+00  0.00000000E+00  0.00000000E+00
  0.00000000E+00  0.00000000E+00  0.00000000E+00
  0.00000000E+00  0.00000000E+00  0.00000000E+00
  0.00000000E+00  0.00000000E+00  0.00000000E+00
  0.00000000E+00  0.00000000E+00  0.00000000E+00
  0.00000000E+00  0.00000000E+00  0.00000000E+00
  0.00000000E+00  0.00000000E+00  0.00000000E+00
  0.00000000E+00  0.00000000E+00  0.00000000E+00
  0.00000000E+00  0.00000000E+00  0.00000000E+00
  0.00000000E+00  0.00000000E+00  0.00000000E+00
  0.00000000E+00  0.00000000E+00  0.00000000E+00
  0.00000000E+00  0.00000000E+00  0.00000000E+00
  0.00000000E+00  0.00000000E+00  0.00000000E+00
  0.00000000E+00  0.00000000E+00  0.00000000E+00
  0.00000000E+00  0.00000000E+00  0.00000000E+00
  0.00000000E+00  0.00000000E+00  0.00000000E+00
  0.00000000E+00  0.00000000E+00  0.00000000E+00
  0.00000000E+00  0.00000000E+00  0.00000000E+00
  0.00000000E+00  0.00000000E+00  0.00000000E+00
  0.00000000E+00  0.00000000E+00  0.00000000E+00
  0.00000000E+00  0.00000000E+00  0.00000000E+00
  0.00000000E+00  0.00000000E+00  0.00000000E+00
  0.00000000E+00  0.00000000E+00  0.00000000E+00
  0.00000000E+00  0.00000000E+00  0.00000000E+00
  0.00000000E+00  0.00000000E+00  0.00000000E+00
  0.00000000E+00  0.00000000E+00  0.00000000E+00
  0.00000000E+00  0.00000000E+00  0.00000000E+00
  0.00000000E+00  0.00000000E+00  0.00000000E+00
  0.00000000E+00  0.00000000E+00  0.00000000E+00
  0.00000000E+00  0.00000000E+00  0.00000000E+00
  0.00000000E+00  0.00000000E+00  0.00000000E+00
  0.00000000E+00  0.00000000E+00  0.00000000E+00
  0.00000000E+00  0.00000000E+00  0.00000000E+00
  0.00000000E+00  0.00000000E+00  0.00000000E+00
  0.00000000E+00  0.00000000E+00  0.00000000E+00
  0.00000000E+00  0.00000000E+00  0.00000000E+00
  0.00000000E+00  0.00000000E+00  0.00000000E+00
  0.00000000E+00  0.00000000E+00  0.00000000E+00
  0.00000000E+00  0.00000000E+00  0.00000000E+00
  0.00000000E+00  0.00000000E+00  0.00000000E+00
  0.00000000E+00  0.00000000E+00  0.00000000E+00
  0.00000000E+00  0.00000000E+00  0.00000000E+00
  0.00000000E+00  0.00000000E+00  0.00000000E+00
  0.00000000E+00  0.00000000E+00  0.00000000E+00
  0.00000000E+00  0.00000000E+00  0.00000000E+00
  0.00000000E+00  0.00000000E+00  0.00000000E+00
  0.00000000E+00  0.00000000E+00  0.00000000E+00
  0.00000000E+00  0.00000000E+00  0.00000000E+00
  0.00000000E+00  0.00000000E+00  0.00000000E+00
  0.00000000E+00  0.00000000E+00  0.00000000E+00
