Pt  C  O  C  O  H                       
    1.000000000000000     
    11.2213408561008308    0.0000000000000000    0.0000000000000000
     1.4026676070126025   10.7740943252779040    0.0000000000000000
     0.0000000000000000    0.0000000000000000   27.7475611781839042
   Pt   C    O    C    O    H 
    56     1     1     1     2     1
Selective dynamics
Direct
  0.0169491525423737  0.8644067796610173  0.3976208246282127   F   F   F
  0.1694915254237301  0.6440677966101660  0.4162352201503552   F   F   F
  0.0720338983050866  0.4237288135593218  0.4348496156724977   F   F   F
  0.2245762711864430  0.2033898305084776  0.4534640111946402   F   F   F
  0.1261405409633878  0.9873356646317514  0.4654305016149425   T   T   T
  0.0266169407286628  0.7717760596185177  0.4931321164508973   T   T   T
  0.1809679104187658  0.5498680105460393  0.5106182610707153   T   T   T
  0.0845868410465621  0.3283772808756488  0.5289152948206156   T   T   T
  0.2364572031835196  0.1047317003437701  0.5411756804013678   T   T   T
  0.1388578179867073  0.8809851353503539  0.5687685421814915   T   T   T
  0.0404742972184383  0.6653652399303006  0.5865614369864169   T   T   T
  0.1885654640576277  0.4524359852735509  0.6042492539466425   T   T   T
  0.0930934767815477  0.2463921549923063  0.6268604718026886   T   T   T
  0.9956994166747833  0.0282504402692131  0.6333174460164827   T   T   T
  0.2669491525423737  0.8644067796610173  0.3976208246282127   F   F   F
  0.4194915254237301  0.6440677966101660  0.4162352201503552   F   F   F
  0.3220338983050866  0.4237288135593218  0.4348496156724977   F   F   F
  0.4745762711864430  0.2033898305084776  0.4534640111946402   F   F   F
  0.3767257380269098  0.9877259201293580  0.4646584069530357   T   T   T
  0.2775847839381634  0.7704224412924794  0.4932882792904367   T   T   T
  0.4296022572531316  0.5528809948700395  0.5108525670440127   T   T   T
  0.3345227030739755  0.3325687132494970  0.5279228716355089   T   T   T
  0.4860057409979232  0.1049307391700409  0.5409313228919496   T   T   T
  0.3866399832064006  0.8842737111539843  0.5679529063483398   T   T   T
  0.2888119337814211  0.6695048493497897  0.5910934808221482   T   T   T
  0.4435716088297039  0.4569133966599300  0.6085198704877348   T   T   T
  0.3474440333048945  0.2468798564294465  0.6201942788619323   T   T   T
  0.2503039419450970  0.0302447061638864  0.6328183401574707   T   T   T
  0.5169491525423737  0.8644067796610173  0.3976208246282127   F   F   F
  0.6694915254237301  0.6440677966101660  0.4162352201503552   F   F   F
  0.5720338983050866  0.4237288135593218  0.4348496156724977   F   F   F
  0.7245762711864430  0.2033898305084776  0.4534640111946402   F   F   F
  0.6274086161371452  0.9890991734408324  0.4657065032420067   T   T   T
  0.5291715186885414  0.7715750840450040  0.4932105320086510   T   T   T
  0.6794141771360739  0.5526609536951831  0.5099280042869242   T   T   T
  0.5815587782727482  0.3336917942224257  0.5272870631906162   T   T   T
  0.7362887488435047  0.1039101491665017  0.5443174098229322   T   T   T
  0.6390927747649461  0.8830695763056704  0.5690474117152308   T   T   T
  0.5414614880609487  0.6714918778227197  0.5904815517252127   T   T   T
  0.6951961235769591  0.4550786419623046  0.6030872861543887   T   T   T
  0.5935733136819763  0.2423628838596563  0.6186934604887797   T   T   T
  0.4925718466629992  0.0287773479624337  0.6311073829118303   T   T   T
  0.7669491525423737  0.8644067796610173  0.3976208246282127   F   F   F
  0.9194915254237301  0.6440677966101660  0.4162352201503552   F   F   F
  0.8220338983050866  0.4237288135593218  0.4348496156724977   F   F   F
  0.9745762711864430  0.2033898305084776  0.4534640111946402   F   F   F
  0.8753569620116876  0.9894373765322142  0.4655191314352700   T   T   T
  0.7781448170576249  0.7722943852551497  0.4926873551891960   T   T   T
  0.9317261747505683  0.5486129861658480  0.5094385187731856   T   T   T
  0.8318788430764537  0.3302706229721708  0.5261204056972354   T   T   T
  0.9872123518536554  0.1038527088685703  0.5414515731152286   T   T   T
  0.8898798727677321  0.8823866044643992  0.5706344844323682   T   T   T
  0.7907304970354723  0.6674123060665617  0.5855783545736920   T   T   T
  0.9413622507092730  0.4523290771669690  0.6034856554016436   T   T   T
  0.8392832273184414  0.2410187669993341  0.6181444444935656   T   T   T
  0.7459635636007075  0.0248289225561098  0.6354356308010068   T   T   T
  0.4213914968745079  0.6273873392422414  0.6446742319582371   T   T   T
  0.4189893733276894  0.6543567384236095  0.6864289751524904   T   T   T
  0.1119106990348700  0.1107719888732818  0.6798198327070513   T   T   T
  0.1127425471133403  0.1077531579405456  0.7229880412904042   T   T   T
  0.7385832094863244  0.9700974610821268  0.7026540558958476   T   T   T
  0.8187470586171934  0.9631602826943481  0.7172357011021123   T   T   T
 
  0.00000000E+00  0.00000000E+00  0.00000000E+00
  0.00000000E+00  0.00000000E+00  0.00000000E+00
  0.00000000E+00  0.00000000E+00  0.00000000E+00
  0.00000000E+00  0.00000000E+00  0.00000000E+00
  0.00000000E+00  0.00000000E+00  0.00000000E+00
  0.00000000E+00  0.00000000E+00  0.00000000E+00
  0.00000000E+00  0.00000000E+00  0.00000000E+00
  0.00000000E+00  0.00000000E+00  0.00000000E+00
  0.00000000E+00  0.00000000E+00  0.00000000E+00
  0.00000000E+00  0.00000000E+00  0.00000000E+00
  0.00000000E+00  0.00000000E+00  0.00000000E+00
  0.00000000E+00  0.00000000E+00  0.00000000E+00
  0.00000000E+00  0.00000000E+00  0.00000000E+00
  0.00000000E+00  0.00000000E+00  0.00000000E+00
  0.00000000E+00  0.00000000E+00  0.00000000E+00
  0.00000000E+00  0.00000000E+00  0.00000000E+00
  0.00000000E+00  0.00000000E+00  0.00000000E+00
  0.00000000E+00  0.00000000E+00  0.00000000E+00
  0.00000000E+00  0.00000000E+00  0.00000000E+00
  0.00000000E+00  0.00000000E+00  0.00000000E+00
  0.00000000E+00  0.00000000E+00  0.00000000E+00
  0.00000000E+00  0.00000000E+00  0.00000000E+00
  0.00000000E+00  0.00000000E+00  0.00000000E+00
  0.00000000E+00  0.00000000E+00  0.00000000E+00
  0.00000000E+00  0.00000000E+00  0.00000000E+00
  0.00000000E+00  0.00000000E+00  0.00000000E+00
  0.00000000E+00  0.00000000E+00  0.00000000E+00
  0.00000000E+00  0.00000000E+00  0.00000000E+00
  0.00000000E+00  0.00000000E+00  0.00000000E+00
  0.00000000E+00  0.00000000E+00  0.00000000E+00
  0.00000000E+00  0.00000000E+00  0.00000000E+00
  0.00000000E+00  0.00000000E+00  0.00000000E+00
  0.00000000E+00  0.00000000E+00  0.00000000E+00
  0.00000000E+00  0.00000000E+00  0.00000000E+00
  0.00000000E+00  0.00000000E+00  0.00000000E+00
  0.00000000E+00  0.00000000E+00  0.00000000E+00
  0.00000000E+00  0.00000000E+00  0.00000000E+00
  0.00000000E+00  0.00000000E+00  0.00000000E+00
  0.00000000E+00  0.00000000E+00  0.00000000E+00
  0.00000000E+00  0.00000000E+00  0.00000000E+00
  0.00000000E+00  0.00000000E+00  0.00000000E+00
  0.00000000E+00  0.00000000E+00  0.00000000E+00
  0.00000000E+00  0.00000000E+00  0.00000000E+00
  0.00000000E+00  0.00000000E+00  0.00000000E+00
  0.00000000E+00  0.00000000E+00  0.00000000E+00
  0.00000000E+00  0.00000000E+00  0.00000000E+00
  0.00000000E+00  0.00000000E+00  0.00000000E+00
  0.00000000E+00  0.00000000E+00  0.00000000E+00
  0.00000000E+00  0.00000000E+00  0.00000000E+00
  0.00000000E+00  0.00000000E+00  0.00000000E+00
  0.00000000E+00  0.00000000E+00  0.00000000E+00
  0.00000000E+00  0.00000000E+00  0.00000000E+00
  0.00000000E+00  0.00000000E+00  0.00000000E+00
  0.00000000E+00  0.00000000E+00  0.00000000E+00
  0.00000000E+00  0.00000000E+00  0.00000000E+00
  0.00000000E+00  0.00000000E+00  0.00000000E+00
  0.00000000E+00  0.00000000E+00  0.00000000E+00
  0.00000000E+00  0.00000000E+00  0.00000000E+00
  0.00000000E+00  0.00000000E+00  0.00000000E+00
  0.00000000E+00  0.00000000E+00  0.00000000E+00
  0.00000000E+00  0.00000000E+00  0.00000000E+00
  0.00000000E+00  0.00000000E+00  0.00000000E+00
