Pt  C  O  C  O  H                       
    1.000000000000000     
    11.2213408561008308    0.0000000000000000    0.0000000000000000
     1.4026676070126025   10.7740943252779040    0.0000000000000000
     0.0000000000000000    0.0000000000000000   27.7475611781839042
   Pt   C    O    C    O    H 
    56     1     1     1     2     1
Selective dynamics
Direct
  0.0169491525423737  0.8644067796610173  0.3976208246282127   F   F   F
  0.1694915254237301  0.6440677966101660  0.4162352201503552   F   F   F
  0.0720338983050866  0.4237288135593218  0.4348496156724977   F   F   F
  0.2245762711864430  0.2033898305084776  0.4534640111946402   F   F   F
  0.1259947541735948  0.9894535390967436  0.4646827050019986   T   T   T
  0.0263438350891225  0.7728794467292599  0.4925131053485798   T   T   T
  0.1796555802514718  0.5498854028940436  0.5092641833409217   T   T   T
  0.0842896812942834  0.3306869735717042  0.5273885107394244   T   T   T
  0.2368598784274570  0.1080267835782215  0.5407212213830017   T   T   T
  0.1350408364526943  0.8867921423301987  0.5679777321817328   T   T   T
  0.0378089217375181  0.6719222614712239  0.5855320102423571   T   T   T
  0.1864821253232928  0.4606642157725476  0.6046953407363433   T   T   T
  0.0926219852860695  0.2493166730435341  0.6213274929146284   T   T   T
  0.9993571830977420  0.0334086646041330  0.6308870821346656   T   T   T
  0.2669491525423737  0.8644067796610173  0.3976208246282127   F   F   F
  0.4194915254237301  0.6440677966101660  0.4162352201503552   F   F   F
  0.3220338983050866  0.4237288135593218  0.4348496156724977   F   F   F
  0.4745762711864430  0.2033898305084776  0.4534640111946402   F   F   F
  0.3764691580393134  0.9891666757499716  0.4643334188877373   T   T   T
  0.2769652289500760  0.7726606162413530  0.4920970008802746   T   T   T
  0.4307663753438445  0.5516198306584262  0.5103846378504531   T   T   T
  0.3346397619598698  0.3344904321040605  0.5290736826903975   T   T   T
  0.4865642519985468  0.1081070090197500  0.5409460649908266   T   T   T
  0.3853758653740225  0.8872172900328645  0.5673244946032635   T   T   T
  0.2809696624729189  0.6741167232569214  0.5847194454507445   T   T   T
  0.4327358029985924  0.4644571622859519  0.6096473165220117   T   T   T
  0.3399090358569196  0.2514542004677980  0.6222098847072045   T   T   T
  0.2429020532741076  0.0347238516382889  0.6308283959340915   T   T   T
  0.5169491525423737  0.8644067796610173  0.3976208246282127   F   F   F
  0.6694915254237301  0.6440677966101660  0.4162352201503552   F   F   F
  0.5720338983050866  0.4237288135593218  0.4348496156724977   F   F   F
  0.7245762711864430  0.2033898305084776  0.4534640111946402   F   F   F
  0.6260501265837902  0.9890513263456450  0.4646405845340829   T   T   T
  0.5275470968682531  0.7717728223471945  0.4935177789169655   T   T   T
  0.6792639446424695  0.5516540320371942  0.5113577321038274   T   T   T
  0.5830876184673697  0.3343935785601669  0.5309938031112919   T   T   T
  0.7349238948535909  0.1071516208459703  0.5410100559487879   T   T   T
  0.6364245300038625  0.8855902552151219  0.5700526365857862   T   T   T
  0.5331750540241217  0.6763605158828890  0.5909639354958965   T   T   T
  0.6953633288728774  0.4632713714830019  0.6060445136279454   T   T   T
  0.5852801681543237  0.2511545363772303  0.6257698831366533   T   T   T
  0.4859211345556160  0.0338497158900726  0.6302967969342642   T   T   T
  0.7669491525423737  0.8644067796610173  0.3976208246282127   F   F   F
  0.9194915254237301  0.6440677966101660  0.4162352201503552   F   F   F
  0.8220338983050866  0.4237288135593218  0.4348496156724977   F   F   F
  0.9745762711864430  0.2033898305084776  0.4534640111946402   F   F   F
  0.8763070873512241  0.9893963696864945  0.4645731256433610   T   T   T
  0.7766986788945914  0.7743129154291779  0.4924007257298909   T   T   T
  0.9292387241899790  0.5496160705573311  0.5089832400356347   T   T   T
  0.8329380059145065  0.3309297142200646  0.5289376987770458   T   T   T
  0.9851742151446901  0.1070864486025696  0.5410576717028824   T   T   T
  0.8857253468003962  0.8875023766843201  0.5698815007253494   T   T   T
  0.7911618934566177  0.6735530363906872  0.5842828585977554   T   T   T
  0.9438230527985376  0.4593614795313708  0.6030224831516978   T   T   T
  0.8466195665870927  0.2483553457402835  0.6250035235213550   T   T   T
  0.7418848106507899  0.0345439335453948  0.6317767203519133   T   T   T
  0.4594235510007865  0.6121608849264171  0.6508489926155107   T   T   T
  0.4443441691862611  0.6427850592275417  0.6914433771168029   T   T   T
  0.7234657633218140  0.1974786010421199  0.6756483162385891   T   T   T
  0.7226313844114881  0.2085635627022897  0.7185200872404243   T   T   T
  0.7013983267622994  0.5087573926468851  0.6752842566940627   T   T   T
  0.7855492745567947  0.4898272933873981  0.6853507359193712   T   T   T
 
  0.00000000E+00  0.00000000E+00  0.00000000E+00
  0.00000000E+00  0.00000000E+00  0.00000000E+00
  0.00000000E+00  0.00000000E+00  0.00000000E+00
  0.00000000E+00  0.00000000E+00  0.00000000E+00
  0.00000000E+00  0.00000000E+00  0.00000000E+00
  0.00000000E+00  0.00000000E+00  0.00000000E+00
  0.00000000E+00  0.00000000E+00  0.00000000E+00
  0.00000000E+00  0.00000000E+00  0.00000000E+00
  0.00000000E+00  0.00000000E+00  0.00000000E+00
  0.00000000E+00  0.00000000E+00  0.00000000E+00
  0.00000000E+00  0.00000000E+00  0.00000000E+00
  0.00000000E+00  0.00000000E+00  0.00000000E+00
  0.00000000E+00  0.00000000E+00  0.00000000E+00
  0.00000000E+00  0.00000000E+00  0.00000000E+00
  0.00000000E+00  0.00000000E+00  0.00000000E+00
  0.00000000E+00  0.00000000E+00  0.00000000E+00
  0.00000000E+00  0.00000000E+00  0.00000000E+00
  0.00000000E+00  0.00000000E+00  0.00000000E+00
  0.00000000E+00  0.00000000E+00  0.00000000E+00
  0.00000000E+00  0.00000000E+00  0.00000000E+00
  0.00000000E+00  0.00000000E+00  0.00000000E+00
  0.00000000E+00  0.00000000E+00  0.00000000E+00
  0.00000000E+00  0.00000000E+00  0.00000000E+00
  0.00000000E+00  0.00000000E+00  0.00000000E+00
  0.00000000E+00  0.00000000E+00  0.00000000E+00
  0.00000000E+00  0.00000000E+00  0.00000000E+00
  0.00000000E+00  0.00000000E+00  0.00000000E+00
  0.00000000E+00  0.00000000E+00  0.00000000E+00
  0.00000000E+00  0.00000000E+00  0.00000000E+00
  0.00000000E+00  0.00000000E+00  0.00000000E+00
  0.00000000E+00  0.00000000E+00  0.00000000E+00
  0.00000000E+00  0.00000000E+00  0.00000000E+00
  0.00000000E+00  0.00000000E+00  0.00000000E+00
  0.00000000E+00  0.00000000E+00  0.00000000E+00
  0.00000000E+00  0.00000000E+00  0.00000000E+00
  0.00000000E+00  0.00000000E+00  0.00000000E+00
  0.00000000E+00  0.00000000E+00  0.00000000E+00
  0.00000000E+00  0.00000000E+00  0.00000000E+00
  0.00000000E+00  0.00000000E+00  0.00000000E+00
  0.00000000E+00  0.00000000E+00  0.00000000E+00
  0.00000000E+00  0.00000000E+00  0.00000000E+00
  0.00000000E+00  0.00000000E+00  0.00000000E+00
  0.00000000E+00  0.00000000E+00  0.00000000E+00
  0.00000000E+00  0.00000000E+00  0.00000000E+00
  0.00000000E+00  0.00000000E+00  0.00000000E+00
  0.00000000E+00  0.00000000E+00  0.00000000E+00
  0.00000000E+00  0.00000000E+00  0.00000000E+00
  0.00000000E+00  0.00000000E+00  0.00000000E+00
  0.00000000E+00  0.00000000E+00  0.00000000E+00
  0.00000000E+00  0.00000000E+00  0.00000000E+00
  0.00000000E+00  0.00000000E+00  0.00000000E+00
  0.00000000E+00  0.00000000E+00  0.00000000E+00
  0.00000000E+00  0.00000000E+00  0.00000000E+00
  0.00000000E+00  0.00000000E+00  0.00000000E+00
  0.00000000E+00  0.00000000E+00  0.00000000E+00
  0.00000000E+00  0.00000000E+00  0.00000000E+00
  0.00000000E+00  0.00000000E+00  0.00000000E+00
  0.00000000E+00  0.00000000E+00  0.00000000E+00
  0.00000000E+00  0.00000000E+00  0.00000000E+00
  0.00000000E+00  0.00000000E+00  0.00000000E+00
  0.00000000E+00  0.00000000E+00  0.00000000E+00
  0.00000000E+00  0.00000000E+00  0.00000000E+00
