Pt  C  O  C  O  H                       
    1.000000000000000     
    11.2213408561008308    0.0000000000000000    0.0000000000000000
     1.4026676070126025   10.7740943252779040    0.0000000000000000
     0.0000000000000000    0.0000000000000000   27.7475611781839042
   Pt   C    O    C    O    H 
    56     1     1     1     2     1
Selective dynamics
Direct
  0.0169491525423737  0.8644067796610173  0.3976208246282127   F   F   F
  0.1694915254237301  0.6440677966101660  0.4162352201503552   F   F   F
  0.0720338983050866  0.4237288135593218  0.4348496156724977   F   F   F
  0.2245762711864430  0.2033898305084776  0.4534640111946402   F   F   F
  0.1244751608092514  0.9900885586194276  0.4653347918532668   T   T   T
  0.0283874271976362  0.7723455857132795  0.4925000963348167   T   T   T
  0.1820306381647418  0.5468615260633853  0.5090830701440218   T   T   T
  0.0837252233414474  0.3283776864813013  0.5268169935576283   T   T   T
  0.2388551071307297  0.1036433195158911  0.5412417847491564   T   T   T
  0.1402627110113054  0.8811395717090952  0.5689947325090060   T   T   T
  0.0404871673601874  0.6662111197019421  0.5848863712901387   T   T   T
  0.1913506133115600  0.4530333412195101  0.6032284833732507   T   T   T
  0.0968320111498466  0.2401274702090273  0.6193902119989027   T   T   T
  0.0058656110381551  0.0236893843094558  0.6355877794761347   T   T   T
  0.2669491525423737  0.8644067796610173  0.3976208246282127   F   F   F
  0.4194915254237301  0.6440677966101660  0.4162352201503552   F   F   F
  0.3220338983050866  0.4237288135593218  0.4348496156724977   F   F   F
  0.4745762711864430  0.2033898305084776  0.4534640111946402   F   F   F
  0.3763618073413584  0.9879529474350722  0.4641967187669660   T   T   T
  0.2771005237743048  0.7714965149660810  0.4925020031492205   T   T   T
  0.4320910589970018  0.5452910386596957  0.5089574742371428   T   T   T
  0.3342004221221240  0.3262825347679537  0.5294181417951097   T   T   T
  0.4867561958858153  0.1013652595552989  0.5407026070515640   T   T   T
  0.3906731784901320  0.8773771230139681  0.5681876340233776   T   T   T
  0.2906791354194866  0.6637651553906523  0.5847377329459937   T   T   T
  0.4434353831652356  0.4555332659840161  0.6018741734417191   T   T   T
  0.3434022728218146  0.2473403447763820  0.6301960604316473   T   T   T
  0.2519150429022401  0.0272449211396232  0.6309695064450725   T   T   T
  0.5169491525423737  0.8644067796610173  0.3976208246282127   F   F   F
  0.6694915254237301  0.6440677966101660  0.4162352201503552   F   F   F
  0.5720338983050866  0.4237288135593218  0.4348496156724977   F   F   F
  0.7245762711864430  0.2033898305084776  0.4534640111946402   F   F   F
  0.6282098926314360  0.9888857851260354  0.4655355724293342   T   T   T
  0.5282870633788262  0.7698127869734714  0.4922005130794514   T   T   T
  0.6812695760855655  0.5468954617151296  0.5091951177256163   T   T   T
  0.5849437105861084  0.3240037993356869  0.5291602241884974   T   T   T
  0.7340257646869206  0.1036948231777048  0.5465027817935537   T   T   T
  0.6401780066233385  0.8782452797750147  0.5686727497247803   T   T   T
  0.5442797311823693  0.6629973925501645  0.5854353504678994   T   T   T
  0.6957821638003289  0.4514543300878270  0.6029158949729634   T   T   T
  0.5942163126049016  0.2439187527984986  0.6289103390325527   T   T   T
  0.4921222272861986  0.0237562314223727  0.6295811637836948   T   T   T
  0.7669491525423737  0.8644067796610173  0.3976208246282127   F   F   F
  0.9194915254237301  0.6440677966101660  0.4162352201503552   F   F   F
  0.8220338983050866  0.4237288135593218  0.4348496156724977   F   F   F
  0.9745762711864430  0.2033898305084776  0.4534640111946402   F   F   F
  0.8759968183885400  0.9913703470281535  0.4660089665731307   T   T   T
  0.7796877795150976  0.7722665763943454  0.4926524597069121   T   T   T
  0.9313829670917879  0.5495839764128604  0.5089098808564707   T   T   T
  0.8345202017838194  0.3274919744549096  0.5263778348555974   T   T   T
  0.9872857177007899  0.1029578339333734  0.5447958092749796   T   T   T
  0.8898368763645440  0.8832671647707937  0.5697107150218124   T   T   T
  0.7931783345095839  0.6651077951353196  0.5853081734754277   T   T   T
  0.9439381592345489  0.4523336952983243  0.6027035502376240   T   T   T
  0.8447955295409727  0.2377143919204908  0.6183152900935709   T   T   T
  0.7434434710729990  0.0210800267547418  0.6361759626572916   T   T   T
  0.4672770002087122  0.2742321758561105  0.6800258760622336   T   T   T
  0.4652629327858079  0.2969073591704847  0.7218183439985146   T   T   T
  0.7459344736930724  0.9607638501349367  0.6990339452027426   T   T   T
  0.7435846778983400  0.9223910722493739  0.7378878115334829   T   T   T
  0.0127359418015439  0.9580064560982443  0.7016979390172171   T   T   T
  0.0964181038888160  0.9413621463864988  0.7123015482368555   T   T   T
 
  0.00000000E+00  0.00000000E+00  0.00000000E+00
  0.00000000E+00  0.00000000E+00  0.00000000E+00
  0.00000000E+00  0.00000000E+00  0.00000000E+00
  0.00000000E+00  0.00000000E+00  0.00000000E+00
  0.00000000E+00  0.00000000E+00  0.00000000E+00
  0.00000000E+00  0.00000000E+00  0.00000000E+00
  0.00000000E+00  0.00000000E+00  0.00000000E+00
  0.00000000E+00  0.00000000E+00  0.00000000E+00
  0.00000000E+00  0.00000000E+00  0.00000000E+00
  0.00000000E+00  0.00000000E+00  0.00000000E+00
  0.00000000E+00  0.00000000E+00  0.00000000E+00
  0.00000000E+00  0.00000000E+00  0.00000000E+00
  0.00000000E+00  0.00000000E+00  0.00000000E+00
  0.00000000E+00  0.00000000E+00  0.00000000E+00
  0.00000000E+00  0.00000000E+00  0.00000000E+00
  0.00000000E+00  0.00000000E+00  0.00000000E+00
  0.00000000E+00  0.00000000E+00  0.00000000E+00
  0.00000000E+00  0.00000000E+00  0.00000000E+00
  0.00000000E+00  0.00000000E+00  0.00000000E+00
  0.00000000E+00  0.00000000E+00  0.00000000E+00
  0.00000000E+00  0.00000000E+00  0.00000000E+00
  0.00000000E+00  0.00000000E+00  0.00000000E+00
  0.00000000E+00  0.00000000E+00  0.00000000E+00
  0.00000000E+00  0.00000000E+00  0.00000000E+00
  0.00000000E+00  0.00000000E+00  0.00000000E+00
  0.00000000E+00  0.00000000E+00  0.00000000E+00
  0.00000000E+00  0.00000000E+00  0.00000000E+00
  0.00000000E+00  0.00000000E+00  0.00000000E+00
  0.00000000E+00  0.00000000E+00  0.00000000E+00
  0.00000000E+00  0.00000000E+00  0.00000000E+00
  0.00000000E+00  0.00000000E+00  0.00000000E+00
  0.00000000E+00  0.00000000E+00  0.00000000E+00
  0.00000000E+00  0.00000000E+00  0.00000000E+00
  0.00000000E+00  0.00000000E+00  0.00000000E+00
  0.00000000E+00  0.00000000E+00  0.00000000E+00
  0.00000000E+00  0.00000000E+00  0.00000000E+00
  0.00000000E+00  0.00000000E+00  0.00000000E+00
  0.00000000E+00  0.00000000E+00  0.00000000E+00
  0.00000000E+00  0.00000000E+00  0.00000000E+00
  0.00000000E+00  0.00000000E+00  0.00000000E+00
  0.00000000E+00  0.00000000E+00  0.00000000E+00
  0.00000000E+00  0.00000000E+00  0.00000000E+00
  0.00000000E+00  0.00000000E+00  0.00000000E+00
  0.00000000E+00  0.00000000E+00  0.00000000E+00
  0.00000000E+00  0.00000000E+00  0.00000000E+00
  0.00000000E+00  0.00000000E+00  0.00000000E+00
  0.00000000E+00  0.00000000E+00  0.00000000E+00
  0.00000000E+00  0.00000000E+00  0.00000000E+00
  0.00000000E+00  0.00000000E+00  0.00000000E+00
  0.00000000E+00  0.00000000E+00  0.00000000E+00
  0.00000000E+00  0.00000000E+00  0.00000000E+00
  0.00000000E+00  0.00000000E+00  0.00000000E+00
  0.00000000E+00  0.00000000E+00  0.00000000E+00
  0.00000000E+00  0.00000000E+00  0.00000000E+00
  0.00000000E+00  0.00000000E+00  0.00000000E+00
  0.00000000E+00  0.00000000E+00  0.00000000E+00
  0.00000000E+00  0.00000000E+00  0.00000000E+00
  0.00000000E+00  0.00000000E+00  0.00000000E+00
  0.00000000E+00  0.00000000E+00  0.00000000E+00
  0.00000000E+00  0.00000000E+00  0.00000000E+00
  0.00000000E+00  0.00000000E+00  0.00000000E+00
  0.00000000E+00  0.00000000E+00  0.00000000E+00
