Pt  C  O  C  O  H                       
    1.000000000000000     
    11.2213408561008308    0.0000000000000000    0.0000000000000000
     1.4026676070126025   10.7740943252779040    0.0000000000000000
     0.0000000000000000    0.0000000000000000   27.7475611781839042
   Pt   C    O    C    O    H 
    56     1     1     1     2     1
Selective dynamics
Direct
  0.0169491525423737  0.8644067796610173  0.3976208246282127   F   F   F
  0.1694915254237301  0.6440677966101660  0.4162352201503552   F   F   F
  0.0720338983050866  0.4237288135593218  0.4348496156724977   F   F   F
  0.2245762711864430  0.2033898305084776  0.4534640111946402   F   F   F
  0.1264733045360844  0.9871943048938150  0.4651928625242430   T   T   T
  0.0275907158056935  0.7688018770198459  0.4943201166050296   T   T   T
  0.1796505321882872  0.5517827116267064  0.5103070391608175   T   T   T
  0.0856721893517244  0.3328814655553357  0.5276755744463140   T   T   T
  0.2367620693337301  0.1050207985958905  0.5409139484261218   T   T   T
  0.1378762567279083  0.8810456509741827  0.5682109859708396   T   T   T
  0.0408131567907023  0.6682162908350047  0.5939354957626660   T   T   T
  0.1942568498890755  0.4562757887082433  0.6100199321450389   T   T   T
  0.0938850970814686  0.2418979717591400  0.6194327030955483   T   T   T
  0.9962036264943901  0.0284806477020545  0.6312793007302386   T   T   T
  0.2669491525423737  0.8644067796610173  0.3976208246282127   F   F   F
  0.4194915254237301  0.6440677966101660  0.4162352201503552   F   F   F
  0.3220338983050866  0.4237288135593218  0.4348496156724977   F   F   F
  0.4745762711864430  0.2033898305084776  0.4534640111946402   F   F   F
  0.3778749537435562  0.9886818255271748  0.4657126071613333   T   T   T
  0.2790734262132743  0.7717405167401747  0.4919052189831833   T   T   T
  0.4321217144952340  0.5516876060911358  0.5101486945028043   T   T   T
  0.3331301972842795  0.3360439670425210  0.5288602742633625   T   T   T
  0.4866514395085094  0.1035258104036086  0.5444840610321143   T   T   T
  0.3901331848128878  0.8844290940614695  0.5693057282182280   T   T   T
  0.2916300140096341  0.6694061061040113  0.5831976249590449   T   T   T
  0.4430182647294679  0.4559821097807216  0.6097323957474092   T   T   T
  0.3438083643660860  0.2412769144565587  0.6188531112783840   T   T   T
  0.2410054990156825  0.0273725878933147  0.6310230549796185   T   T   T
  0.5169491525423737  0.8644067796610173  0.3976208246282127   F   F   F
  0.6694915254237301  0.6440677966101660  0.4162352201503552   F   F   F
  0.5720338983050866  0.4237288135593218  0.4348496156724977   F   F   F
  0.7245762711864430  0.2033898305084776  0.4534640111946402   F   F   F
  0.6252577453130698  0.9879056941747246  0.4661098993399416   T   T   T
  0.5291446494047239  0.7704224606147980  0.4944835856706321   T   T   T
  0.6805246533850002  0.5515175406826885  0.5101346344181992   T   T   T
  0.5810348108846715  0.3307296047244633  0.5268603222055074   T   T   T
  0.7374606768448865  0.1015074432255044  0.5407995135607530   T   T   T
  0.6403031440990716  0.8796990736365240  0.5707351140919933   T   T   T
  0.5411295806313897  0.6700626738485030  0.5931086799684061   T   T   T
  0.6955620349590089  0.4476510108020704  0.6022094797589319   T   T   T
  0.5945053532710070  0.2358065984157396  0.6181129414208616   T   T   T
  0.4976312908703788  0.0248392743002075  0.6358324389368916   T   T   T
  0.7669491525423737  0.8644067796610173  0.3976208246282127   F   F   F
  0.9194915254237301  0.6440677966101660  0.4162352201503552   F   F   F
  0.8220338983050866  0.4237288135593218  0.4348496156724977   F   F   F
  0.9745762711864430  0.2033898305084776  0.4534640111946402   F   F   F
  0.8765600263494153  0.9860582616050294  0.4655425599304258   T   T   T
  0.7776977863054764  0.7716102882746180  0.4932896242045379   T   T   T
  0.9308415080030000  0.5511370555634885  0.5104951475194588   T   T   T
  0.8343394802141273  0.3303401175604308  0.5261837841641828   T   T   T
  0.9874662685792325  0.1030108850134862  0.5404434260298447   T   T   T
  0.8905334416756276  0.8767616769842149  0.5706277269599773   T   T   T
  0.7904573204225843  0.6640120455203478  0.5871484747460932   T   T   T
  0.9386621366852546  0.4505194896339035  0.6033722489397347   T   T   T
  0.8449173335115839  0.2392859294460840  0.6189231444274129   T   T   T
  0.7520869872071738  0.0256431525760052  0.6317868531972463   T   T   T
  0.4985696743448408  0.5841274343526529  0.6539995825702546   T   T   T
  0.4999651489434254  0.6029149200292906  0.6959394407408160   T   T   T
  0.1092095932209626  0.5849624301075457  0.6545337400635164   T   T   T
  0.1055114083066105  0.6053636974952843  0.6964027306525483   T   T   T
  0.4919733614040857  0.9654106779882875  0.7024002755025001   T   T   T
  0.5732269143660090  0.9348641529179856  0.7134970601358839   T   T   T
 
  0.00000000E+00  0.00000000E+00  0.00000000E+00
  0.00000000E+00  0.00000000E+00  0.00000000E+00
  0.00000000E+00  0.00000000E+00  0.00000000E+00
  0.00000000E+00  0.00000000E+00  0.00000000E+00
  0.00000000E+00  0.00000000E+00  0.00000000E+00
  0.00000000E+00  0.00000000E+00  0.00000000E+00
  0.00000000E+00  0.00000000E+00  0.00000000E+00
  0.00000000E+00  0.00000000E+00  0.00000000E+00
  0.00000000E+00  0.00000000E+00  0.00000000E+00
  0.00000000E+00  0.00000000E+00  0.00000000E+00
  0.00000000E+00  0.00000000E+00  0.00000000E+00
  0.00000000E+00  0.00000000E+00  0.00000000E+00
  0.00000000E+00  0.00000000E+00  0.00000000E+00
  0.00000000E+00  0.00000000E+00  0.00000000E+00
  0.00000000E+00  0.00000000E+00  0.00000000E+00
  0.00000000E+00  0.00000000E+00  0.00000000E+00
  0.00000000E+00  0.00000000E+00  0.00000000E+00
  0.00000000E+00  0.00000000E+00  0.00000000E+00
  0.00000000E+00  0.00000000E+00  0.00000000E+00
  0.00000000E+00  0.00000000E+00  0.00000000E+00
  0.00000000E+00  0.00000000E+00  0.00000000E+00
  0.00000000E+00  0.00000000E+00  0.00000000E+00
  0.00000000E+00  0.00000000E+00  0.00000000E+00
  0.00000000E+00  0.00000000E+00  0.00000000E+00
  0.00000000E+00  0.00000000E+00  0.00000000E+00
  0.00000000E+00  0.00000000E+00  0.00000000E+00
  0.00000000E+00  0.00000000E+00  0.00000000E+00
  0.00000000E+00  0.00000000E+00  0.00000000E+00
  0.00000000E+00  0.00000000E+00  0.00000000E+00
  0.00000000E+00  0.00000000E+00  0.00000000E+00
  0.00000000E+00  0.00000000E+00  0.00000000E+00
  0.00000000E+00  0.00000000E+00  0.00000000E+00
  0.00000000E+00  0.00000000E+00  0.00000000E+00
  0.00000000E+00  0.00000000E+00  0.00000000E+00
  0.00000000E+00  0.00000000E+00  0.00000000E+00
  0.00000000E+00  0.00000000E+00  0.00000000E+00
  0.00000000E+00  0.00000000E+00  0.00000000E+00
  0.00000000E+00  0.00000000E+00  0.00000000E+00
  0.00000000E+00  0.00000000E+00  0.00000000E+00
  0.00000000E+00  0.00000000E+00  0.00000000E+00
  0.00000000E+00  0.00000000E+00  0.00000000E+00
  0.00000000E+00  0.00000000E+00  0.00000000E+00
  0.00000000E+00  0.00000000E+00  0.00000000E+00
  0.00000000E+00  0.00000000E+00  0.00000000E+00
  0.00000000E+00  0.00000000E+00  0.00000000E+00
  0.00000000E+00  0.00000000E+00  0.00000000E+00
  0.00000000E+00  0.00000000E+00  0.00000000E+00
  0.00000000E+00  0.00000000E+00  0.00000000E+00
  0.00000000E+00  0.00000000E+00  0.00000000E+00
  0.00000000E+00  0.00000000E+00  0.00000000E+00
  0.00000000E+00  0.00000000E+00  0.00000000E+00
  0.00000000E+00  0.00000000E+00  0.00000000E+00
  0.00000000E+00  0.00000000E+00  0.00000000E+00
  0.00000000E+00  0.00000000E+00  0.00000000E+00
  0.00000000E+00  0.00000000E+00  0.00000000E+00
  0.00000000E+00  0.00000000E+00  0.00000000E+00
  0.00000000E+00  0.00000000E+00  0.00000000E+00
  0.00000000E+00  0.00000000E+00  0.00000000E+00
  0.00000000E+00  0.00000000E+00  0.00000000E+00
  0.00000000E+00  0.00000000E+00  0.00000000E+00
  0.00000000E+00  0.00000000E+00  0.00000000E+00
  0.00000000E+00  0.00000000E+00  0.00000000E+00
