Pt  C  O  C  O  H                       
    1.000000000000000     
    11.2213408561008308    0.0000000000000000    0.0000000000000000
     1.4026676070126025   10.7740943252779040    0.0000000000000000
     0.0000000000000000    0.0000000000000000   27.7475611781839042
   Pt   C    O    C    O    H 
    56     1     1     1     2     1
Selective dynamics
Direct
  0.0169491525423737  0.8644067796610173  0.3976208246282127   F   F   F
  0.1694915254237301  0.6440677966101660  0.4162352201503552   F   F   F
  0.0720338983050866  0.4237288135593218  0.4348496156724977   F   F   F
  0.2245762711864430  0.2033898305084776  0.4534640111946402   F   F   F
  0.1271960179727080  0.9893148333608792  0.4655018193117392   T   T   T
  0.0289127897635045  0.7725113179353348  0.4931564852821720   T   T   T
  0.1805868314279090  0.5503098494568361  0.5091426528504929   T   T   T
  0.0854287919709543  0.3275727589575490  0.5264768983343271   T   T   T
  0.2375759722471462  0.1009700040616422  0.5441259121687673   T   T   T
  0.1376810720155213  0.8824749706069169  0.5710876794836907   T   T   T
  0.0425757050638828  0.6663597902831709  0.5863547486598578   T   T   T
  0.1917593486684483  0.4538251515278718  0.6031485320991188   T   T   T
  0.0994742575084489  0.2386218604918936  0.6181281829117899   T   T   T
  0.9932361617492993  0.0265089288135101  0.6345485157597550   T   T   T
  0.2669491525423737  0.8644067796610173  0.3976208246282127   F   F   F
  0.4194915254237301  0.6440677966101660  0.4162352201503552   F   F   F
  0.3220338983050866  0.4237288135593218  0.4348496156724977   F   F   F
  0.4745762711864430  0.2033898305084776  0.4534640111946402   F   F   F
  0.3749938818048223  0.9897147673558895  0.4649644777253983   T   T   T
  0.2789481097105427  0.7707147548190393  0.4927483507386728   T   T   T
  0.4330164353602434  0.5469439165865039  0.5112336936697073   T   T   T
  0.3344618875832947  0.3312402882068955  0.5272848251145318   T   T   T
  0.4880380331819241  0.1040552927633498  0.5412956553776749   T   T   T
  0.3904420716795115  0.8798599974081286  0.5686158137700908   T   T   T
  0.2918358402887732  0.6644337797536803  0.5855539718278742   T   T   T
  0.4419215866353900  0.4560263737624483  0.6096190856379180   T   T   T
  0.3410603847025023  0.2367367695583272  0.6182301558596369   T   T   T
  0.2529098637298823  0.0210499242354023  0.6353163193671124   T   T   T
  0.5169491525423737  0.8644067796610173  0.3976208246282127   F   F   F
  0.6694915254237301  0.6440677966101660  0.4162352201503552   F   F   F
  0.5720338983050866  0.4237288135593218  0.4348496156724977   F   F   F
  0.7245762711864430  0.2033898305084776  0.4534640111946402   F   F   F
  0.6260808980362537  0.9880324161826155  0.4644280495233155   T   T   T
  0.5280048104704910  0.7697046216511736  0.4926476487914800   T   T   T
  0.6837297280255402  0.5436803149985311  0.5097162646542824   T   T   T
  0.5841128587942005  0.3272624676589494  0.5295316990401255   T   T   T
  0.7358821161953135  0.1015597030190098  0.5410176689589887   T   T   T
  0.6417262593991940  0.8772974346910437  0.5685530479509507   T   T   T
  0.5433008826601777  0.6629050097086534  0.5851322737419957   T   T   T
  0.7008815780335650  0.4511380869201725  0.6037524982828114   T   T   T
  0.5932869497218871  0.2464163824779546  0.6307441305726477   T   T   T
  0.5006986824975450  0.0262069997733054  0.6309288410688992   T   T   T
  0.7669491525423737  0.8644067796610173  0.3976208246282127   F   F   F
  0.9194915254237301  0.6440677966101660  0.4162352201503552   F   F   F
  0.8220338983050866  0.4237288135593218  0.4348496156724977   F   F   F
  0.9745762711864430  0.2033898305084776  0.4534640111946402   F   F   F
  0.8767120993977773  0.9879836220226932  0.4645741754263680   T   T   T
  0.7783862119878371  0.7694838113590966  0.4925706171606246   T   T   T
  0.9315826163773600  0.5468288840230675  0.5094251557058468   T   T   T
  0.8345827592692899  0.3227936167858002  0.5301395980790947   T   T   T
  0.9860001100935397  0.1004258794406281  0.5416051242239297   T   T   T
  0.8891014899605599  0.8797183956297620  0.5697678548008953   T   T   T
  0.7941192514455199  0.6630690754060158  0.5860869560573522   T   T   T
  0.9467138855726319  0.4514312755758133  0.6028100026248379   T   T   T
  0.8468320772465856  0.2451985450584150  0.6302721672551870   T   T   T
  0.7384299215259699  0.0300804497588218  0.6304434983962625   T   T   T
  0.5107400692925200  0.3843658697389384  0.6714891871551313   T   T   T
  0.5076622446587674  0.4077374645491609  0.7131322505421476   T   T   T
  0.9168297682950886  0.1456863911542436  0.6863159268878394   T   T   T
  0.9193866817974101  0.1479113202936481  0.7288692613245347   T   T   T
  0.2544673798676417  0.9581563153549302  0.7016911799220024   T   T   T
  0.3376562476002251  0.9356877688562089  0.7124459756644372   T   T   T
 
  0.00000000E+00  0.00000000E+00  0.00000000E+00
  0.00000000E+00  0.00000000E+00  0.00000000E+00
  0.00000000E+00  0.00000000E+00  0.00000000E+00
  0.00000000E+00  0.00000000E+00  0.00000000E+00
  0.00000000E+00  0.00000000E+00  0.00000000E+00
  0.00000000E+00  0.00000000E+00  0.00000000E+00
  0.00000000E+00  0.00000000E+00  0.00000000E+00
  0.00000000E+00  0.00000000E+00  0.00000000E+00
  0.00000000E+00  0.00000000E+00  0.00000000E+00
  0.00000000E+00  0.00000000E+00  0.00000000E+00
  0.00000000E+00  0.00000000E+00  0.00000000E+00
  0.00000000E+00  0.00000000E+00  0.00000000E+00
  0.00000000E+00  0.00000000E+00  0.00000000E+00
  0.00000000E+00  0.00000000E+00  0.00000000E+00
  0.00000000E+00  0.00000000E+00  0.00000000E+00
  0.00000000E+00  0.00000000E+00  0.00000000E+00
  0.00000000E+00  0.00000000E+00  0.00000000E+00
  0.00000000E+00  0.00000000E+00  0.00000000E+00
  0.00000000E+00  0.00000000E+00  0.00000000E+00
  0.00000000E+00  0.00000000E+00  0.00000000E+00
  0.00000000E+00  0.00000000E+00  0.00000000E+00
  0.00000000E+00  0.00000000E+00  0.00000000E+00
  0.00000000E+00  0.00000000E+00  0.00000000E+00
  0.00000000E+00  0.00000000E+00  0.00000000E+00
  0.00000000E+00  0.00000000E+00  0.00000000E+00
  0.00000000E+00  0.00000000E+00  0.00000000E+00
  0.00000000E+00  0.00000000E+00  0.00000000E+00
  0.00000000E+00  0.00000000E+00  0.00000000E+00
  0.00000000E+00  0.00000000E+00  0.00000000E+00
  0.00000000E+00  0.00000000E+00  0.00000000E+00
  0.00000000E+00  0.00000000E+00  0.00000000E+00
  0.00000000E+00  0.00000000E+00  0.00000000E+00
  0.00000000E+00  0.00000000E+00  0.00000000E+00
  0.00000000E+00  0.00000000E+00  0.00000000E+00
  0.00000000E+00  0.00000000E+00  0.00000000E+00
  0.00000000E+00  0.00000000E+00  0.00000000E+00
  0.00000000E+00  0.00000000E+00  0.00000000E+00
  0.00000000E+00  0.00000000E+00  0.00000000E+00
  0.00000000E+00  0.00000000E+00  0.00000000E+00
  0.00000000E+00  0.00000000E+00  0.00000000E+00
  0.00000000E+00  0.00000000E+00  0.00000000E+00
  0.00000000E+00  0.00000000E+00  0.00000000E+00
  0.00000000E+00  0.00000000E+00  0.00000000E+00
  0.00000000E+00  0.00000000E+00  0.00000000E+00
  0.00000000E+00  0.00000000E+00  0.00000000E+00
  0.00000000E+00  0.00000000E+00  0.00000000E+00
  0.00000000E+00  0.00000000E+00  0.00000000E+00
  0.00000000E+00  0.00000000E+00  0.00000000E+00
  0.00000000E+00  0.00000000E+00  0.00000000E+00
  0.00000000E+00  0.00000000E+00  0.00000000E+00
  0.00000000E+00  0.00000000E+00  0.00000000E+00
  0.00000000E+00  0.00000000E+00  0.00000000E+00
  0.00000000E+00  0.00000000E+00  0.00000000E+00
  0.00000000E+00  0.00000000E+00  0.00000000E+00
  0.00000000E+00  0.00000000E+00  0.00000000E+00
  0.00000000E+00  0.00000000E+00  0.00000000E+00
  0.00000000E+00  0.00000000E+00  0.00000000E+00
  0.00000000E+00  0.00000000E+00  0.00000000E+00
  0.00000000E+00  0.00000000E+00  0.00000000E+00
  0.00000000E+00  0.00000000E+00  0.00000000E+00
  0.00000000E+00  0.00000000E+00  0.00000000E+00
  0.00000000E+00  0.00000000E+00  0.00000000E+00
