Pt  C  O  C  O  H                       
    1.000000000000000     
    11.2213408561008308    0.0000000000000000    0.0000000000000000
     1.4026676070126025   10.7740943252779040    0.0000000000000000
     0.0000000000000000    0.0000000000000000   27.7475611781839042
   Pt   C    O    C    O    H 
    56     1     1     1     2     1
Selective dynamics
Direct
  0.0169491525423737  0.8644067796610173  0.3976208246282127   F   F   F
  0.1694915254237301  0.6440677966101660  0.4162352201503552   F   F   F
  0.0720338983050866  0.4237288135593218  0.4348496156724977   F   F   F
  0.2245762711864430  0.2033898305084776  0.4534640111946402   F   F   F
  0.1277717271503780  0.9901109479715466  0.4653289948696291   T   T   T
  0.0284556087028066  0.7722023017708400  0.4921429381885608   T   T   T
  0.1817450790473038  0.5503638411455661  0.5084939553120433   T   T   T
  0.0834908879411262  0.3304187113219319  0.5267911174832945   T   T   T
  0.2380591692683195  0.1058831256878385  0.5461231739789941   T   T   T
  0.1394612821109853  0.8825042135854704  0.5681001062894467   T   T   T
  0.0409103847460607  0.6684547681439892  0.5851299315323197   T   T   T
  0.1905154367714552  0.4577523697530210  0.6019282953967244   T   T   T
  0.0910582583421785  0.2430454278083166  0.6185903083549129   T   T   T
  0.9933547810580198  0.0280083959729400  0.6314543299527859   T   T   T
  0.2669491525423737  0.8644067796610173  0.3976208246282127   F   F   F
  0.4194915254237301  0.6440677966101660  0.4162352201503552   F   F   F
  0.3220338983050866  0.4237288135593218  0.4348496156724977   F   F   F
  0.4745762711864430  0.2033898305084776  0.4534640111946402   F   F   F
  0.3753333661142294  0.9896289416398316  0.4658832025187069   T   T   T
  0.2784328371581650  0.7725653692995376  0.4924407171661113   T   T   T
  0.4323442176174713  0.5474867857659478  0.5088042338127488   T   T   T
  0.3335512400127055  0.3278648861493166  0.5296880581179070   T   T   T
  0.4879349822788976  0.1044567405326677  0.5419384506706429   T   T   T
  0.3914546776023715  0.8821488320837892  0.5694409763152185   T   T   T
  0.2922471698015324  0.6668691339749094  0.5847183126528104   T   T   T
  0.4452726641521500  0.4545686368383385  0.6023115047550692   T   T   T
  0.3382982678301928  0.2484751730867329  0.6247513774960808   T   T   T
  0.2454811673898535  0.0223566796080409  0.6354629651829614   T   T   T
  0.5169491525423737  0.8644067796610173  0.3976208246282127   F   F   F
  0.6694915254237301  0.6440677966101660  0.4162352201503552   F   F   F
  0.5720338983050866  0.4237288135593218  0.4348496156724977   F   F   F
  0.7245762711864430  0.2033898305084776  0.4534640111946402   F   F   F
  0.6255925770371075  0.9889637788402924  0.4647377506431240   T   T   T
  0.5282919289579617  0.7714841374622895  0.4924009411130285   T   T   T
  0.6809050966613903  0.5469268534305572  0.5096104859044727   T   T   T
  0.5851296843085282  0.3267912446392095  0.5292575958696412   T   T   T
  0.7371092676573061  0.1019033422717075  0.5412291088506811   T   T   T
  0.6398172786962796  0.8808199082265638  0.5685841649354124   T   T   T
  0.5421525012502624  0.6661438373429240  0.5857072799177868   T   T   T
  0.6939931871584269  0.4547088252437766  0.6043566610661586   T   T   T
  0.5978619127511186  0.2473204111407576  0.6263298471531807   T   T   T
  0.4981814321023921  0.0290097527854231  0.6324581891060770   T   T   T
  0.7669491525423737  0.8644067796610173  0.3976208246282127   F   F   F
  0.9194915254237301  0.6440677966101660  0.4162352201503552   F   F   F
  0.8220338983050866  0.4237288135593218  0.4348496156724977   F   F   F
  0.9745762711864430  0.2033898305084776  0.4534640111946402   F   F   F
  0.8765814180829142  0.9887316229624280  0.4645160832957990   T   T   T
  0.7781233153769810  0.7716097529707268  0.4925706645803115   T   T   T
  0.9305732876606870  0.5499879145445802  0.5091692787077913   T   T   T
  0.8341991859161695  0.3293191586938934  0.5273739702233943   T   T   T
  0.9869533226833850  0.1030636871956750  0.5407577124569918   T   T   T
  0.8878370734971182  0.8816896421906891  0.5692413870631235   T   T   T
  0.7907972537081317  0.6670905240417235  0.5856095456232396   T   T   T
  0.9419840835079565  0.4582617474558347  0.6033867594305098   T   T   T
  0.8491495387368806  0.2462199067058068  0.6201444194625424   T   T   T
  0.7517609000278684  0.0295273249918791  0.6334550567381956   T   T   T
  0.6151628740326534  0.1118105532155623  0.6793456581666401   T   T   T
  0.6116463654341022  0.1114022465952702  0.7226073058858233   T   T   T
  0.2506210658316668  0.9643677768509091  0.6986668233775138   T   T   T
  0.2540768668840804  0.9269573412348964  0.7378164457871575   T   T   T
  0.3305241015045252  0.2750741394039436  0.6951164365670289   T   T   T
  0.4131616482572164  0.2744706284100031  0.7066920951408036   T   T   T
 
  0.00000000E+00  0.00000000E+00  0.00000000E+00
  0.00000000E+00  0.00000000E+00  0.00000000E+00
  0.00000000E+00  0.00000000E+00  0.00000000E+00
  0.00000000E+00  0.00000000E+00  0.00000000E+00
  0.00000000E+00  0.00000000E+00  0.00000000E+00
  0.00000000E+00  0.00000000E+00  0.00000000E+00
  0.00000000E+00  0.00000000E+00  0.00000000E+00
  0.00000000E+00  0.00000000E+00  0.00000000E+00
  0.00000000E+00  0.00000000E+00  0.00000000E+00
  0.00000000E+00  0.00000000E+00  0.00000000E+00
  0.00000000E+00  0.00000000E+00  0.00000000E+00
  0.00000000E+00  0.00000000E+00  0.00000000E+00
  0.00000000E+00  0.00000000E+00  0.00000000E+00
  0.00000000E+00  0.00000000E+00  0.00000000E+00
  0.00000000E+00  0.00000000E+00  0.00000000E+00
  0.00000000E+00  0.00000000E+00  0.00000000E+00
  0.00000000E+00  0.00000000E+00  0.00000000E+00
  0.00000000E+00  0.00000000E+00  0.00000000E+00
  0.00000000E+00  0.00000000E+00  0.00000000E+00
  0.00000000E+00  0.00000000E+00  0.00000000E+00
  0.00000000E+00  0.00000000E+00  0.00000000E+00
  0.00000000E+00  0.00000000E+00  0.00000000E+00
  0.00000000E+00  0.00000000E+00  0.00000000E+00
  0.00000000E+00  0.00000000E+00  0.00000000E+00
  0.00000000E+00  0.00000000E+00  0.00000000E+00
  0.00000000E+00  0.00000000E+00  0.00000000E+00
  0.00000000E+00  0.00000000E+00  0.00000000E+00
  0.00000000E+00  0.00000000E+00  0.00000000E+00
  0.00000000E+00  0.00000000E+00  0.00000000E+00
  0.00000000E+00  0.00000000E+00  0.00000000E+00
  0.00000000E+00  0.00000000E+00  0.00000000E+00
  0.00000000E+00  0.00000000E+00  0.00000000E+00
  0.00000000E+00  0.00000000E+00  0.00000000E+00
  0.00000000E+00  0.00000000E+00  0.00000000E+00
  0.00000000E+00  0.00000000E+00  0.00000000E+00
  0.00000000E+00  0.00000000E+00  0.00000000E+00
  0.00000000E+00  0.00000000E+00  0.00000000E+00
  0.00000000E+00  0.00000000E+00  0.00000000E+00
  0.00000000E+00  0.00000000E+00  0.00000000E+00
  0.00000000E+00  0.00000000E+00  0.00000000E+00
  0.00000000E+00  0.00000000E+00  0.00000000E+00
  0.00000000E+00  0.00000000E+00  0.00000000E+00
  0.00000000E+00  0.00000000E+00  0.00000000E+00
  0.00000000E+00  0.00000000E+00  0.00000000E+00
  0.00000000E+00  0.00000000E+00  0.00000000E+00
  0.00000000E+00  0.00000000E+00  0.00000000E+00
  0.00000000E+00  0.00000000E+00  0.00000000E+00
  0.00000000E+00  0.00000000E+00  0.00000000E+00
  0.00000000E+00  0.00000000E+00  0.00000000E+00
  0.00000000E+00  0.00000000E+00  0.00000000E+00
  0.00000000E+00  0.00000000E+00  0.00000000E+00
  0.00000000E+00  0.00000000E+00  0.00000000E+00
  0.00000000E+00  0.00000000E+00  0.00000000E+00
  0.00000000E+00  0.00000000E+00  0.00000000E+00
  0.00000000E+00  0.00000000E+00  0.00000000E+00
  0.00000000E+00  0.00000000E+00  0.00000000E+00
  0.00000000E+00  0.00000000E+00  0.00000000E+00
  0.00000000E+00  0.00000000E+00  0.00000000E+00
  0.00000000E+00  0.00000000E+00  0.00000000E+00
  0.00000000E+00  0.00000000E+00  0.00000000E+00
  0.00000000E+00  0.00000000E+00  0.00000000E+00
  0.00000000E+00  0.00000000E+00  0.00000000E+00
