Pt  C  O  C  O  H                       
    1.000000000000000     
    11.2213408561008308    0.0000000000000000    0.0000000000000000
     1.4026676070126025   10.7740943252779040    0.0000000000000000
     0.0000000000000000    0.0000000000000000   27.7475611781839042
   Pt   C    O    C    O    H 
    56     1     1     1     2     1
Selective dynamics
Direct
  0.0169491525423737  0.8644067796610173  0.3976208246282127   F   F   F
  0.1694915254237301  0.6440677966101660  0.4162352201503552   F   F   F
  0.0720338983050866  0.4237288135593218  0.4348496156724977   F   F   F
  0.2245762711864430  0.2033898305084776  0.4534640111946402   F   F   F
  0.1265231931183886  0.9873311153594494  0.4652862656720659   T   T   T
  0.0280252801735349  0.7712917769874386  0.4930553711446074   T   T   T
  0.1787906127066350  0.5509175079760147  0.5097204108023101   T   T   T
  0.0832032214350792  0.3295243171082725  0.5313247137498019   T   T   T
  0.2370802183800821  0.1060891644065359  0.5407944234908038   T   T   T
  0.1398210539107531  0.8811252880416969  0.5686036662421320   T   T   T
  0.0422817904704284  0.6714727465908640  0.5906790396266709   T   T   T
  0.1954335794083712  0.4555262747938941  0.6022136396226720   T   T   T
  0.0948696394376264  0.2479389638201501  0.6259224053458292   T   T   T
  0.9939057488914059  0.0300608990368020  0.6297893611520077   T   T   T
  0.2669491525423737  0.8644067796610173  0.3976208246282127   F   F   F
  0.4194915254237301  0.6440677966101660  0.4162352201503552   F   F   F
  0.3220338983050866  0.4237288135593218  0.4348496156724977   F   F   F
  0.4745762711864430  0.2033898305084776  0.4534640111946402   F   F   F
  0.3762298171056158  0.9884267549549609  0.4645827013834186   T   T   T
  0.2790265614741523  0.7696864693785359  0.4924615606001034   T   T   T
  0.4320976096490680  0.5475461872343587  0.5114828346662471   T   T   T
  0.3343057912032913  0.3321975927660413  0.5275618896846220   T   T   T
  0.4868577480087882  0.1044277663473673  0.5410508942469688   T   T   T
  0.3901146771854264  0.8803607860508487  0.5689212768849964   T   T   T
  0.2924148213671677  0.6665349427817286  0.5861597514785336   T   T   T
  0.4433726003458229  0.4604602442959846  0.6107344363666105   T   T   T
  0.3430521407434453  0.2416973953813663  0.6197957829729577   T   T   T
  0.2468599443098393  0.0281369206116303  0.6297298735426103   T   T   T
  0.5169491525423737  0.8644067796610173  0.3976208246282127   F   F   F
  0.6694915254237301  0.6440677966101660  0.4162352201503552   F   F   F
  0.5720338983050866  0.4237288135593218  0.4348496156724977   F   F   F
  0.7245762711864430  0.2033898305084776  0.4534640111946402   F   F   F
  0.6264865808895815  0.9878327684604330  0.4651611489040918   T   T   T
  0.5279930866513503  0.7703024960203941  0.4926256042785653   T   T   T
  0.6827623648397685  0.5501462253189827  0.5098605521455678   T   T   T
  0.5839921411018386  0.3306508256494037  0.5285954714787029   T   T   T
  0.7345890078806719  0.1076921532093818  0.5411614108578218   T   T   T
  0.6394034095130668  0.8815837490780096  0.5689032934736086   T   T   T
  0.5425139583051792  0.6673680347209825  0.5859587752181624   T   T   T
  0.6943745858547583  0.4555849502824874  0.6021811138462962   T   T   T
  0.5947793250204763  0.2457507544092780  0.6284509392977742   T   T   T
  0.4960188527427257  0.0294786738841540  0.6308693940256257   T   T   T
  0.7669491525423737  0.8644067796610173  0.3976208246282127   F   F   F
  0.9194915254237301  0.6440677966101660  0.4162352201503552   F   F   F
  0.8220338983050866  0.4237288135593218  0.4348496156724977   F   F   F
  0.9745762711864430  0.2033898305084776  0.4534640111946402   F   F   F
  0.8762735286125047  0.9884254407349993  0.4640114245104401   T   T   T
  0.7778647094785595  0.7709943609731424  0.4931196661615061   T   T   T
  0.9314633129083015  0.5506435589136442  0.5102354657917257   T   T   T
  0.8347787943657440  0.3310787164441849  0.5281529282240708   T   T   T
  0.9862703202659856  0.1048116576655358  0.5406979287907385   T   T   T
  0.8881611108998111  0.8854576850161053  0.5673139449290077   T   T   T
  0.7906055191945691  0.6724020871948805  0.5906431700434559   T   T   T
  0.9418732664113109  0.4575625358819185  0.6070283573633153   T   T   T
  0.8436816262981540  0.2447041432870130  0.6213300865705782   T   T   T
  0.7442974035351485  0.0318799954210167  0.6307414963207354   T   T   T
  0.5110792899846202  0.3794460004438034  0.6712271511389186   T   T   T
  0.5078211028926393  0.3983990144161220  0.7132428376478175   T   T   T
  0.9227099127973699  0.6263383064692419  0.6445067395008309   T   T   T
  0.9199190928481824  0.6501556647361153  0.6865347256752047   T   T   T
  0.0977433727029587  0.2409320691510331  0.6976279733381721   T   T   T
  0.1642073732965826  0.2855338871643195  0.7075450363482519   T   T   T
 
  0.00000000E+00  0.00000000E+00  0.00000000E+00
  0.00000000E+00  0.00000000E+00  0.00000000E+00
  0.00000000E+00  0.00000000E+00  0.00000000E+00
  0.00000000E+00  0.00000000E+00  0.00000000E+00
  0.00000000E+00  0.00000000E+00  0.00000000E+00
  0.00000000E+00  0.00000000E+00  0.00000000E+00
  0.00000000E+00  0.00000000E+00  0.00000000E+00
  0.00000000E+00  0.00000000E+00  0.00000000E+00
  0.00000000E+00  0.00000000E+00  0.00000000E+00
  0.00000000E+00  0.00000000E+00  0.00000000E+00
  0.00000000E+00  0.00000000E+00  0.00000000E+00
  0.00000000E+00  0.00000000E+00  0.00000000E+00
  0.00000000E+00  0.00000000E+00  0.00000000E+00
  0.00000000E+00  0.00000000E+00  0.00000000E+00
  0.00000000E+00  0.00000000E+00  0.00000000E+00
  0.00000000E+00  0.00000000E+00  0.00000000E+00
  0.00000000E+00  0.00000000E+00  0.00000000E+00
  0.00000000E+00  0.00000000E+00  0.00000000E+00
  0.00000000E+00  0.00000000E+00  0.00000000E+00
  0.00000000E+00  0.00000000E+00  0.00000000E+00
  0.00000000E+00  0.00000000E+00  0.00000000E+00
  0.00000000E+00  0.00000000E+00  0.00000000E+00
  0.00000000E+00  0.00000000E+00  0.00000000E+00
  0.00000000E+00  0.00000000E+00  0.00000000E+00
  0.00000000E+00  0.00000000E+00  0.00000000E+00
  0.00000000E+00  0.00000000E+00  0.00000000E+00
  0.00000000E+00  0.00000000E+00  0.00000000E+00
  0.00000000E+00  0.00000000E+00  0.00000000E+00
  0.00000000E+00  0.00000000E+00  0.00000000E+00
  0.00000000E+00  0.00000000E+00  0.00000000E+00
  0.00000000E+00  0.00000000E+00  0.00000000E+00
  0.00000000E+00  0.00000000E+00  0.00000000E+00
  0.00000000E+00  0.00000000E+00  0.00000000E+00
  0.00000000E+00  0.00000000E+00  0.00000000E+00
  0.00000000E+00  0.00000000E+00  0.00000000E+00
  0.00000000E+00  0.00000000E+00  0.00000000E+00
  0.00000000E+00  0.00000000E+00  0.00000000E+00
  0.00000000E+00  0.00000000E+00  0.00000000E+00
  0.00000000E+00  0.00000000E+00  0.00000000E+00
  0.00000000E+00  0.00000000E+00  0.00000000E+00
  0.00000000E+00  0.00000000E+00  0.00000000E+00
  0.00000000E+00  0.00000000E+00  0.00000000E+00
  0.00000000E+00  0.00000000E+00  0.00000000E+00
  0.00000000E+00  0.00000000E+00  0.00000000E+00
  0.00000000E+00  0.00000000E+00  0.00000000E+00
  0.00000000E+00  0.00000000E+00  0.00000000E+00
  0.00000000E+00  0.00000000E+00  0.00000000E+00
  0.00000000E+00  0.00000000E+00  0.00000000E+00
  0.00000000E+00  0.00000000E+00  0.00000000E+00
  0.00000000E+00  0.00000000E+00  0.00000000E+00
  0.00000000E+00  0.00000000E+00  0.00000000E+00
  0.00000000E+00  0.00000000E+00  0.00000000E+00
  0.00000000E+00  0.00000000E+00  0.00000000E+00
  0.00000000E+00  0.00000000E+00  0.00000000E+00
  0.00000000E+00  0.00000000E+00  0.00000000E+00
  0.00000000E+00  0.00000000E+00  0.00000000E+00
  0.00000000E+00  0.00000000E+00  0.00000000E+00
  0.00000000E+00  0.00000000E+00  0.00000000E+00
  0.00000000E+00  0.00000000E+00  0.00000000E+00
  0.00000000E+00  0.00000000E+00  0.00000000E+00
  0.00000000E+00  0.00000000E+00  0.00000000E+00
  0.00000000E+00  0.00000000E+00  0.00000000E+00
