Pt  C  O  C  O  H                       
    1.000000000000000     
    11.2213408561008308    0.0000000000000000    0.0000000000000000
     1.4026676070126025   10.7740943252779040    0.0000000000000000
     0.0000000000000000    0.0000000000000000   27.7475611781839042
   Pt   C    O    C    O    H 
    56     1     1     1     2     1
Selective dynamics
Direct
  0.0169491525423737  0.8644067796610173  0.3976208246282127   F   F   F
  0.1694915254237301  0.6440677966101660  0.4162352201503552   F   F   F
  0.0720338983050866  0.4237288135593218  0.4348496156724977   F   F   F
  0.2245762711864430  0.2033898305084776  0.4534640111946402   F   F   F
  0.1271875184851405  0.9891699110567470  0.4656165377343909   T   T   T
  0.0282134435194047  0.7710642869033870  0.4925501873565967   T   T   T
  0.1829170277643610  0.5540378544320174  0.5119344252328369   T   T   T
  0.0827253763003638  0.3308455245700651  0.5270500359677068   T   T   T
  0.2353483229957755  0.1042829637415345  0.5447888232069454   T   T   T
  0.1393934571343952  0.8805391036886345  0.5686721353774825   T   T   T
  0.0400475833350527  0.6672509091229949  0.5870584739430400   T   T   T
  0.1897168873184024  0.4534478987172919  0.6043819911191297   T   T   T
  0.0933897594507106  0.2419708210922510  0.6191135577089394   T   T   T
  0.9940487664891876  0.0267318905724351  0.6319811173029066   T   T   T
  0.2669491525423737  0.8644067796610173  0.3976208246282127   F   F   F
  0.4194915254237301  0.6440677966101660  0.4162352201503552   F   F   F
  0.3220338983050866  0.4237288135593218  0.4348496156724977   F   F   F
  0.4745762711864430  0.2033898305084776  0.4534640111946402   F   F   F
  0.3753509404123174  0.9900434086773049  0.4648396632365372   T   T   T
  0.2776290476088561  0.7731872539095347  0.4923801728429338   T   T   T
  0.4324215958728023  0.5506057867319152  0.5085197444338838   T   T   T
  0.3310941882679994  0.3301815883369347  0.5261160670793046   T   T   T
  0.4881766251561440  0.1052917387258977  0.5415188678554835   T   T   T
  0.3913766396890248  0.8868031337753722  0.5659888462954622   T   T   T
  0.2918784821229670  0.6633669291886277  0.5878958108048910   T   T   T
  0.4458274149824218  0.4437493440213980  0.5998759328963743   T   T   T
  0.3390848093270288  0.2407813796225142  0.6181657964370738   T   T   T
  0.2457381316563129  0.0224409805201483  0.6353689753738891   T   T   T
  0.5169491525423737  0.8644067796610173  0.3976208246282127   F   F   F
  0.6694915254237301  0.6440677966101660  0.4162352201503552   F   F   F
  0.5720338983050866  0.4237288135593218  0.4348496156724977   F   F   F
  0.7245762711864430  0.2033898305084776  0.4534640111946402   F   F   F
  0.6262501413238175  0.9881029482093472  0.4650991163604062   T   T   T
  0.5291907127069470  0.7722761250238491  0.4924721411994088   T   T   T
  0.6788277761136651  0.5512545341731204  0.5119494115553004   T   T   T
  0.5871573418912813  0.3267716768361079  0.5284144151261481   T   T   T
  0.7381877410131994  0.1012957902713454  0.5415284700730415   T   T   T
  0.6407642765882240  0.8804789943680809  0.5689151732200047   T   T   T
  0.5439978693164129  0.6625685904940468  0.5882733966610472   T   T   T
  0.6971433889290977  0.4504927954315956  0.6050690402386540   T   T   T
  0.5970091053821355  0.2441522077982508  0.6263182969373627   T   T   T
  0.4973315794485828  0.0269896347649824  0.6327622099890668   T   T   T
  0.7669491525423737  0.8644067796610173  0.3976208246282127   F   F   F
  0.9194915254237301  0.6440677966101660  0.4162352201503552   F   F   F
  0.8220338983050866  0.4237288135593218  0.4348496156724977   F   F   F
  0.9745762711864430  0.2033898305084776  0.4534640111946402   F   F   F
  0.8768909444405634  0.9883842680095037  0.4643412001146368   T   T   T
  0.7792021188289273  0.7714308472292798  0.4929287142418805   T   T   T
  0.9307409541199541  0.5498515880235513  0.5098884449579205   T   T   T
  0.8352973281670661  0.3293718878584660  0.5274105009734690   T   T   T
  0.9863472392554049  0.1017118403752783  0.5411284684492361   T   T   T
  0.8883052628569278  0.8807968888937883  0.5697564401905141   T   T   T
  0.7929669900596877  0.6659184492755278  0.5871380777611154   T   T   T
  0.9427509661373846  0.4568629363224027  0.6047390256721715   T   T   T
  0.8510189483531442  0.2438897112527208  0.6202672527168015   T   T   T
  0.7520363096525906  0.0288876695581513  0.6337549210816737   T   T   T
  0.6118805804737288  0.1105854615135721  0.6798550123159519   T   T   T
  0.6110443826756500  0.1095458941499381  0.7230453352024765   T   T   T
  0.2522496591942400  0.9684994031627639  0.6988860867802245   T   T   T
  0.2552792470625965  0.9358976603050425  0.7387143899652066   T   T   T
  0.4115702858578191  0.6981935874089104  0.6457979550294199   T   T   T
  0.4215289782375034  0.6219121939751215  0.6653456987016886   T   T   T
 
  0.00000000E+00  0.00000000E+00  0.00000000E+00
  0.00000000E+00  0.00000000E+00  0.00000000E+00
  0.00000000E+00  0.00000000E+00  0.00000000E+00
  0.00000000E+00  0.00000000E+00  0.00000000E+00
  0.00000000E+00  0.00000000E+00  0.00000000E+00
  0.00000000E+00  0.00000000E+00  0.00000000E+00
  0.00000000E+00  0.00000000E+00  0.00000000E+00
  0.00000000E+00  0.00000000E+00  0.00000000E+00
  0.00000000E+00  0.00000000E+00  0.00000000E+00
  0.00000000E+00  0.00000000E+00  0.00000000E+00
  0.00000000E+00  0.00000000E+00  0.00000000E+00
  0.00000000E+00  0.00000000E+00  0.00000000E+00
  0.00000000E+00  0.00000000E+00  0.00000000E+00
  0.00000000E+00  0.00000000E+00  0.00000000E+00
  0.00000000E+00  0.00000000E+00  0.00000000E+00
  0.00000000E+00  0.00000000E+00  0.00000000E+00
  0.00000000E+00  0.00000000E+00  0.00000000E+00
  0.00000000E+00  0.00000000E+00  0.00000000E+00
  0.00000000E+00  0.00000000E+00  0.00000000E+00
  0.00000000E+00  0.00000000E+00  0.00000000E+00
  0.00000000E+00  0.00000000E+00  0.00000000E+00
  0.00000000E+00  0.00000000E+00  0.00000000E+00
  0.00000000E+00  0.00000000E+00  0.00000000E+00
  0.00000000E+00  0.00000000E+00  0.00000000E+00
  0.00000000E+00  0.00000000E+00  0.00000000E+00
  0.00000000E+00  0.00000000E+00  0.00000000E+00
  0.00000000E+00  0.00000000E+00  0.00000000E+00
  0.00000000E+00  0.00000000E+00  0.00000000E+00
  0.00000000E+00  0.00000000E+00  0.00000000E+00
  0.00000000E+00  0.00000000E+00  0.00000000E+00
  0.00000000E+00  0.00000000E+00  0.00000000E+00
  0.00000000E+00  0.00000000E+00  0.00000000E+00
  0.00000000E+00  0.00000000E+00  0.00000000E+00
  0.00000000E+00  0.00000000E+00  0.00000000E+00
  0.00000000E+00  0.00000000E+00  0.00000000E+00
  0.00000000E+00  0.00000000E+00  0.00000000E+00
  0.00000000E+00  0.00000000E+00  0.00000000E+00
  0.00000000E+00  0.00000000E+00  0.00000000E+00
  0.00000000E+00  0.00000000E+00  0.00000000E+00
  0.00000000E+00  0.00000000E+00  0.00000000E+00
  0.00000000E+00  0.00000000E+00  0.00000000E+00
  0.00000000E+00  0.00000000E+00  0.00000000E+00
  0.00000000E+00  0.00000000E+00  0.00000000E+00
  0.00000000E+00  0.00000000E+00  0.00000000E+00
  0.00000000E+00  0.00000000E+00  0.00000000E+00
  0.00000000E+00  0.00000000E+00  0.00000000E+00
  0.00000000E+00  0.00000000E+00  0.00000000E+00
  0.00000000E+00  0.00000000E+00  0.00000000E+00
  0.00000000E+00  0.00000000E+00  0.00000000E+00
  0.00000000E+00  0.00000000E+00  0.00000000E+00
  0.00000000E+00  0.00000000E+00  0.00000000E+00
  0.00000000E+00  0.00000000E+00  0.00000000E+00
  0.00000000E+00  0.00000000E+00  0.00000000E+00
  0.00000000E+00  0.00000000E+00  0.00000000E+00
  0.00000000E+00  0.00000000E+00  0.00000000E+00
  0.00000000E+00  0.00000000E+00  0.00000000E+00
  0.00000000E+00  0.00000000E+00  0.00000000E+00
  0.00000000E+00  0.00000000E+00  0.00000000E+00
  0.00000000E+00  0.00000000E+00  0.00000000E+00
  0.00000000E+00  0.00000000E+00  0.00000000E+00
  0.00000000E+00  0.00000000E+00  0.00000000E+00
  0.00000000E+00  0.00000000E+00  0.00000000E+00
