Pt  C  O  C  O  H                       
    1.000000000000000     
    11.2213408561008308    0.0000000000000000    0.0000000000000000
     1.4026676070126025   10.7740943252779040    0.0000000000000000
     0.0000000000000000    0.0000000000000000   27.7475611781839042
   Pt   C    O    C    O    H 
    56     1     1     1     2     1
Selective dynamics
Direct
  0.0169491525423737  0.8644067796610173  0.3976208246282127   F   F   F
  0.1694915254237301  0.6440677966101660  0.4162352201503552   F   F   F
  0.0720338983050866  0.4237288135593218  0.4348496156724977   F   F   F
  0.2245762711864430  0.2033898305084776  0.4534640111946402   F   F   F
  0.1270532557507164  0.9895840050075237  0.4646565426145381   T   T   T
  0.0278854614384077  0.7717515418864329  0.4924573167530801   T   T   T
  0.1812717952055382  0.5489570084707784  0.5088753794582809   T   T   T
  0.0835942882464234  0.3284330674253974  0.5271578557395656   T   T   T
  0.2360971738723537  0.1036289287730963  0.5428764985196964   T   T   T
  0.1400390604973940  0.8819720638075979  0.5693713244228122   T   T   T
  0.0423835221470048  0.6668742462030557  0.5856836103490108   T   T   T
  0.1919286074691555  0.4550052186547477  0.6025239053692361   T   T   T
  0.0938786923182267  0.2406829487713107  0.6196349646702499   T   T   T
  0.9964309920558487  0.0277188326737660  0.6316465886874150   T   T   T
  0.2669491525423737  0.8644067796610173  0.3976208246282127   F   F   F
  0.4194915254237301  0.6440677966101660  0.4162352201503552   F   F   F
  0.3220338983050866  0.4237288135593218  0.4348496156724977   F   F   F
  0.4745762711864430  0.2033898305084776  0.4534640111946402   F   F   F
  0.3760451386884299  0.9895712231359511  0.4653832748309120   T   T   T
  0.2779648381842515  0.7722861610940340  0.4923551805672316   T   T   T
  0.4310255557355100  0.5489673041057075  0.5085719022981702   T   T   T
  0.3337314720762692  0.3270600789685962  0.5291838348622553   T   T   T
  0.4881305774937741  0.1050094029784032  0.5435843952147055   T   T   T
  0.3902823284000519  0.8824792383727387  0.5675907882222575   T   T   T
  0.2910327495249879  0.6675153097967942  0.5851898526281074   T   T   T
  0.4411499865374007  0.4565956738709331  0.6015419139004577   T   T   T
  0.3469163579071889  0.2463388335674365  0.6232860115873740   T   T   T
  0.2474224145788705  0.0221974877269912  0.6354744330832576   T   T   T
  0.5169491525423737  0.8644067796610173  0.3976208246282127   F   F   F
  0.6694915254237301  0.6440677966101660  0.4162352201503552   F   F   F
  0.5720338983050866  0.4237288135593218  0.4348496156724977   F   F   F
  0.7245762711864430  0.2033898305084776  0.4534640111946402   F   F   F
  0.6251763385808669  0.9891734526743372  0.4650016186314510   T   T   T
  0.5294507681417000  0.7704652362128973  0.4923910305344940   T   T   T
  0.6815445309975399  0.5466648505948210  0.5109320285617182   T   T   T
  0.5843277354638320  0.3284923637794134  0.5282582883604120   T   T   T
  0.7370870134540063  0.1030357272091035  0.5414212534965558   T   T   T
  0.6399160078263584  0.8802822704735119  0.5690531003780305   T   T   T
  0.5416024372391718  0.6656930500877009  0.5855710782038860   T   T   T
  0.6936071250375582  0.4594428029940266  0.6085403742775017   T   T   T
  0.5961616925485314  0.2415405375552875  0.6233435060414716   T   T   T
  0.4997174763220512  0.0205109920943083  0.6355286790355543   T   T   T
  0.7669491525423737  0.8644067796610173  0.3976208246282127   F   F   F
  0.9194915254237301  0.6440677966101660  0.4162352201503552   F   F   F
  0.8220338983050866  0.4237288135593218  0.4348496156724977   F   F   F
  0.9745762711864430  0.2033898305084776  0.4534640111946402   F   F   F
  0.8764642303401066  0.9886747781027456  0.4646786188674009   T   T   T
  0.7784239221677840  0.7705996959936415  0.4923970269182347   T   T   T
  0.9315027042730267  0.5477751183768832  0.5092631336287905   T   T   T
  0.8331746349432924  0.3297140692670199  0.5289849458982995   T   T   T
  0.9854065574451403  0.1041761995068165  0.5414123098625765   T   T   T
  0.8906125105860195  0.8799035682304481  0.5687286150814590   T   T   T
  0.7928626153152762  0.6652498982309799  0.5855876451647607   T   T   T
  0.9465505086352242  0.4555920360181532  0.6033938110874657   T   T   T
  0.8480243238069560  0.2429916431413050  0.6254838702629519   T   T   T
  0.7485569928330295  0.0238224141146513  0.6312001877525454   T   T   T
  0.3772516501266281  0.9802611179467787  0.6849874236673272   T   T   T
  0.3830307559268634  0.9460358001771511  0.7254293699129124   T   T   T
  0.7074233784504059  0.3374765615485693  0.6668435758239040   T   T   T
  0.7027361776109471  0.3540709372728353  0.7095249096496400   T   T   T
  0.3373264511776684  0.2694864773486141  0.6942028060043023   T   T   T
  0.4127703750256456  0.2988689992802480  0.7040760783241344   T   T   T
 
  0.00000000E+00  0.00000000E+00  0.00000000E+00
  0.00000000E+00  0.00000000E+00  0.00000000E+00
  0.00000000E+00  0.00000000E+00  0.00000000E+00
  0.00000000E+00  0.00000000E+00  0.00000000E+00
  0.00000000E+00  0.00000000E+00  0.00000000E+00
  0.00000000E+00  0.00000000E+00  0.00000000E+00
  0.00000000E+00  0.00000000E+00  0.00000000E+00
  0.00000000E+00  0.00000000E+00  0.00000000E+00
  0.00000000E+00  0.00000000E+00  0.00000000E+00
  0.00000000E+00  0.00000000E+00  0.00000000E+00
  0.00000000E+00  0.00000000E+00  0.00000000E+00
  0.00000000E+00  0.00000000E+00  0.00000000E+00
  0.00000000E+00  0.00000000E+00  0.00000000E+00
  0.00000000E+00  0.00000000E+00  0.00000000E+00
  0.00000000E+00  0.00000000E+00  0.00000000E+00
  0.00000000E+00  0.00000000E+00  0.00000000E+00
  0.00000000E+00  0.00000000E+00  0.00000000E+00
  0.00000000E+00  0.00000000E+00  0.00000000E+00
  0.00000000E+00  0.00000000E+00  0.00000000E+00
  0.00000000E+00  0.00000000E+00  0.00000000E+00
  0.00000000E+00  0.00000000E+00  0.00000000E+00
  0.00000000E+00  0.00000000E+00  0.00000000E+00
  0.00000000E+00  0.00000000E+00  0.00000000E+00
  0.00000000E+00  0.00000000E+00  0.00000000E+00
  0.00000000E+00  0.00000000E+00  0.00000000E+00
  0.00000000E+00  0.00000000E+00  0.00000000E+00
  0.00000000E+00  0.00000000E+00  0.00000000E+00
  0.00000000E+00  0.00000000E+00  0.00000000E+00
  0.00000000E+00  0.00000000E+00  0.00000000E+00
  0.00000000E+00  0.00000000E+00  0.00000000E+00
  0.00000000E+00  0.00000000E+00  0.00000000E+00
  0.00000000E+00  0.00000000E+00  0.00000000E+00
  0.00000000E+00  0.00000000E+00  0.00000000E+00
  0.00000000E+00  0.00000000E+00  0.00000000E+00
  0.00000000E+00  0.00000000E+00  0.00000000E+00
  0.00000000E+00  0.00000000E+00  0.00000000E+00
  0.00000000E+00  0.00000000E+00  0.00000000E+00
  0.00000000E+00  0.00000000E+00  0.00000000E+00
  0.00000000E+00  0.00000000E+00  0.00000000E+00
  0.00000000E+00  0.00000000E+00  0.00000000E+00
  0.00000000E+00  0.00000000E+00  0.00000000E+00
  0.00000000E+00  0.00000000E+00  0.00000000E+00
  0.00000000E+00  0.00000000E+00  0.00000000E+00
  0.00000000E+00  0.00000000E+00  0.00000000E+00
  0.00000000E+00  0.00000000E+00  0.00000000E+00
  0.00000000E+00  0.00000000E+00  0.00000000E+00
  0.00000000E+00  0.00000000E+00  0.00000000E+00
  0.00000000E+00  0.00000000E+00  0.00000000E+00
  0.00000000E+00  0.00000000E+00  0.00000000E+00
  0.00000000E+00  0.00000000E+00  0.00000000E+00
  0.00000000E+00  0.00000000E+00  0.00000000E+00
  0.00000000E+00  0.00000000E+00  0.00000000E+00
  0.00000000E+00  0.00000000E+00  0.00000000E+00
  0.00000000E+00  0.00000000E+00  0.00000000E+00
  0.00000000E+00  0.00000000E+00  0.00000000E+00
  0.00000000E+00  0.00000000E+00  0.00000000E+00
  0.00000000E+00  0.00000000E+00  0.00000000E+00
  0.00000000E+00  0.00000000E+00  0.00000000E+00
  0.00000000E+00  0.00000000E+00  0.00000000E+00
  0.00000000E+00  0.00000000E+00  0.00000000E+00
  0.00000000E+00  0.00000000E+00  0.00000000E+00
  0.00000000E+00  0.00000000E+00  0.00000000E+00
