Pt  C  O  C  O  H                       
    1.000000000000000     
    11.2213408561008308    0.0000000000000000    0.0000000000000000
     1.4026676070126025   10.7740943252779040    0.0000000000000000
     0.0000000000000000    0.0000000000000000   27.7475611781839042
   Pt   C    O    C    O    H 
    56     1     1     1     2     1
Selective dynamics
Direct
  0.0169491525423737  0.8644067796610173  0.3976208246282127   F   F   F
  0.1694915254237301  0.6440677966101660  0.4162352201503552   F   F   F
  0.0720338983050866  0.4237288135593218  0.4348496156724977   F   F   F
  0.2245762711864430  0.2033898305084776  0.4534640111946402   F   F   F
  0.1259413874669121  0.9877168780746496  0.4663039904111231   T   T   T
  0.0270644638624752  0.7707839320196826  0.4930063922359106   T   T   T
  0.1797399497360138  0.5480644652824461  0.5092313533997718   T   T   T
  0.0829608493155445  0.3245896273690713  0.5267253607934784   T   T   T
  0.2358857602886571  0.0949894641985811  0.5426465639988616   T   T   T
  0.1379070180114776  0.8760229303125887  0.5723303618780105   T   T   T
  0.0393430267478911  0.6596510981790369  0.5859253597068366   T   T   T
  0.1893875270782145  0.4472858916778372  0.6028470691763580   T   T   T
  0.0920587896780900  0.2305581170392983  0.6184091234719050   T   T   T
  0.9950308870214205  0.0143199264833919  0.6383087276271583   T   T   T
  0.2669491525423737  0.8644067796610173  0.3976208246282127   F   F   F
  0.4194915254237301  0.6440677966101660  0.4162352201503552   F   F   F
  0.3220338983050866  0.4237288135593218  0.4348496156724977   F   F   F
  0.4745762711864430  0.2033898305084776  0.4534640111946402   F   F   F
  0.3764772580168900  0.9889876940938352  0.4653626872079786   T   T   T
  0.2766546545379154  0.7714374111162835  0.4930911763317444   T   T   T
  0.4300629469403305  0.5482310608259624  0.5085010276889055   T   T   T
  0.3317190649133330  0.3260945307521999  0.5261688334206444   T   T   T
  0.4865795015521499  0.0978462602032793  0.5439281134306559   T   T   T
  0.3871384110743252  0.8756856376294891  0.5697771156975306   T   T   T
  0.2885801929809210  0.6600072398455858  0.5860741274090070   T   T   T
  0.4391628526511824  0.4470706811209425  0.6007510664670521   T   T   T
  0.3386093859966444  0.2319294846031729  0.6164495449841174   T   T   T
  0.2441834777580023  0.0165629118618002  0.6382310380924268   T   T   T
  0.5169491525423737  0.8644067796610173  0.3976208246282127   F   F   F
  0.6694915254237301  0.6440677966101660  0.4162352201503552   F   F   F
  0.5720338983050866  0.4237288135593218  0.4348496156724977   F   F   F
  0.7245762711864430  0.2033898305084776  0.4534640111946402   F   F   F
  0.6258343227118791  0.9885673443062766  0.4667729064091749   T   T   T
  0.5269249656381483  0.7717889458363097  0.4930113359913801   T   T   T
  0.6792724029932253  0.5477827602932038  0.5086127851273831   T   T   T
  0.5829462944587246  0.3220755034806548  0.5287258052965029   T   T   T
  0.7347945970004003  0.0978133151067400  0.5439788741066192   T   T   T
  0.6371292049913814  0.8769764359920569  0.5717489399688264   T   T   T
  0.5392570070580792  0.6596182208802270  0.5855991824856878   T   T   T
  0.6920769506452591  0.4475480350845776  0.6010834996810913   T   T   T
  0.5937330851953732  0.2345383100841267  0.6232183642658148   T   T   T
  0.4930574140029870  0.0150933652820172  0.6373570939532961   T   T   T
  0.7669491525423737  0.8644067796610173  0.3976208246282127   F   F   F
  0.9194915254237301  0.6440677966101660  0.4162352201503552   F   F   F
  0.8220338983050866  0.4237288135593218  0.4348496156724977   F   F   F
  0.9745762711864430  0.2033898305084776  0.4534640111946402   F   F   F
  0.8752768767961805  0.9891987477619417  0.4654636309726723   T   T   T
  0.7765698699933591  0.7717184116707051  0.4927082260207671   T   T   T
  0.9297001636928623  0.5480850680934867  0.5089139856367276   T   T   T
  0.8334022480262943  0.3258780337996373  0.5261208325113050   T   T   T
  0.9871873879774763  0.0947739245716870  0.5427978490238538   T   T   T
  0.8882798345773130  0.8760068482033793  0.5691036477364287   T   T   T
  0.7899057281582550  0.6604970816815370  0.5854307059232079   T   T   T
  0.9414948515243741  0.4468836713487255  0.6022893799482608   T   T   T
  0.8464604283567161  0.2308970605695255  0.6166011857864202   T   T   T
  0.7474377062984270  0.0136208008385351  0.6372167301060977   T   T   T
  0.3734058682734358  0.9859241903998813  0.6887614911093478   T   T   T
  0.3771312511355575  0.9597775785389027  0.7301523645289499   T   T   T
  0.8755445558518418  0.9663928792307183  0.6869637397428042   T   T   T
  0.8807160232367492  0.9239268125968766  0.7262836779813484   T   T   T
  0.5811575148130845  0.2685546241738473  0.6931819768992986   T   T   T
  0.6620478309350512  0.2796881239931798  0.7043628466739670   T   T   T
 
  0.00000000E+00  0.00000000E+00  0.00000000E+00
  0.00000000E+00  0.00000000E+00  0.00000000E+00
  0.00000000E+00  0.00000000E+00  0.00000000E+00
  0.00000000E+00  0.00000000E+00  0.00000000E+00
  0.00000000E+00  0.00000000E+00  0.00000000E+00
  0.00000000E+00  0.00000000E+00  0.00000000E+00
  0.00000000E+00  0.00000000E+00  0.00000000E+00
  0.00000000E+00  0.00000000E+00  0.00000000E+00
  0.00000000E+00  0.00000000E+00  0.00000000E+00
  0.00000000E+00  0.00000000E+00  0.00000000E+00
  0.00000000E+00  0.00000000E+00  0.00000000E+00
  0.00000000E+00  0.00000000E+00  0.00000000E+00
  0.00000000E+00  0.00000000E+00  0.00000000E+00
  0.00000000E+00  0.00000000E+00  0.00000000E+00
  0.00000000E+00  0.00000000E+00  0.00000000E+00
  0.00000000E+00  0.00000000E+00  0.00000000E+00
  0.00000000E+00  0.00000000E+00  0.00000000E+00
  0.00000000E+00  0.00000000E+00  0.00000000E+00
  0.00000000E+00  0.00000000E+00  0.00000000E+00
  0.00000000E+00  0.00000000E+00  0.00000000E+00
  0.00000000E+00  0.00000000E+00  0.00000000E+00
  0.00000000E+00  0.00000000E+00  0.00000000E+00
  0.00000000E+00  0.00000000E+00  0.00000000E+00
  0.00000000E+00  0.00000000E+00  0.00000000E+00
  0.00000000E+00  0.00000000E+00  0.00000000E+00
  0.00000000E+00  0.00000000E+00  0.00000000E+00
  0.00000000E+00  0.00000000E+00  0.00000000E+00
  0.00000000E+00  0.00000000E+00  0.00000000E+00
  0.00000000E+00  0.00000000E+00  0.00000000E+00
  0.00000000E+00  0.00000000E+00  0.00000000E+00
  0.00000000E+00  0.00000000E+00  0.00000000E+00
  0.00000000E+00  0.00000000E+00  0.00000000E+00
  0.00000000E+00  0.00000000E+00  0.00000000E+00
  0.00000000E+00  0.00000000E+00  0.00000000E+00
  0.00000000E+00  0.00000000E+00  0.00000000E+00
  0.00000000E+00  0.00000000E+00  0.00000000E+00
  0.00000000E+00  0.00000000E+00  0.00000000E+00
  0.00000000E+00  0.00000000E+00  0.00000000E+00
  0.00000000E+00  0.00000000E+00  0.00000000E+00
  0.00000000E+00  0.00000000E+00  0.00000000E+00
  0.00000000E+00  0.00000000E+00  0.00000000E+00
  0.00000000E+00  0.00000000E+00  0.00000000E+00
  0.00000000E+00  0.00000000E+00  0.00000000E+00
  0.00000000E+00  0.00000000E+00  0.00000000E+00
  0.00000000E+00  0.00000000E+00  0.00000000E+00
  0.00000000E+00  0.00000000E+00  0.00000000E+00
  0.00000000E+00  0.00000000E+00  0.00000000E+00
  0.00000000E+00  0.00000000E+00  0.00000000E+00
  0.00000000E+00  0.00000000E+00  0.00000000E+00
  0.00000000E+00  0.00000000E+00  0.00000000E+00
  0.00000000E+00  0.00000000E+00  0.00000000E+00
  0.00000000E+00  0.00000000E+00  0.00000000E+00
  0.00000000E+00  0.00000000E+00  0.00000000E+00
  0.00000000E+00  0.00000000E+00  0.00000000E+00
  0.00000000E+00  0.00000000E+00  0.00000000E+00
  0.00000000E+00  0.00000000E+00  0.00000000E+00
  0.00000000E+00  0.00000000E+00  0.00000000E+00
  0.00000000E+00  0.00000000E+00  0.00000000E+00
  0.00000000E+00  0.00000000E+00  0.00000000E+00
  0.00000000E+00  0.00000000E+00  0.00000000E+00
  0.00000000E+00  0.00000000E+00  0.00000000E+00
  0.00000000E+00  0.00000000E+00  0.00000000E+00
