Pt  C  O  C  O  H                       
    1.000000000000000     
    11.2213408561008308    0.0000000000000000    0.0000000000000000
     1.4026676070126025   10.7740943252779040    0.0000000000000000
     0.0000000000000000    0.0000000000000000   27.7475611781839042
   Pt   C    O    C    O    H 
    56     1     1     1     2     1
Selective dynamics
Direct
  0.0169491525423737  0.8644067796610173  0.3976208246282127   F   F   F
  0.1694915254237301  0.6440677966101660  0.4162352201503552   F   F   F
  0.0720338983050866  0.4237288135593218  0.4348496156724977   F   F   F
  0.2245762711864430  0.2033898305084776  0.4534640111946402   F   F   F
  0.1250480050482040  0.9899181896939399  0.4653868460519980   T   T   T
  0.0285634512299472  0.7713717443376420  0.4924490227918623   T   T   T
  0.1815517069106971  0.5470197280512452  0.5088876874925061   T   T   T
  0.0816739600929554  0.3303964316490750  0.5277961000649872   T   T   T
  0.2387348915857268  0.1055219537574471  0.5416054450495638   T   T   T
  0.1407363639991658  0.8826228989698519  0.5689714143849559   T   T   T
  0.0441921439621141  0.6667714390898770  0.5846496780630072   T   T   T
  0.1920671577148663  0.4527772006376494  0.6032139463036669   T   T   T
  0.0971540360123644  0.2385978692195802  0.6197745576325778   T   T   T
  0.0015363665063589  0.0224794830762355  0.6352646515683305   T   T   T
  0.2669491525423737  0.8644067796610173  0.3976208246282127   F   F   F
  0.4194915254237301  0.6440677966101660  0.4162352201503552   F   F   F
  0.3220338983050866  0.4237288135593218  0.4348496156724977   F   F   F
  0.4745762711864430  0.2033898305084776  0.4534640111946402   F   F   F
  0.3757479375034368  0.9878176590623565  0.4646841596278436   T   T   T
  0.2777593429025770  0.7711868879432808  0.4924026575461589   T   T   T
  0.4318717308660397  0.5453407618115272  0.5088171902734877   T   T   T
  0.3341474822450479  0.3266406011848427  0.5293009577998951   T   T   T
  0.4878492232665905  0.1020996088280979  0.5402495290630246   T   T   T
  0.3904389827117279  0.8787395466470698  0.5680924245430123   T   T   T
  0.2907040820260137  0.6642129205691290  0.5850119300856652   T   T   T
  0.4437158618190896  0.4558643042143355  0.6024472635877722   T   T   T
  0.3443753965220967  0.2462397008139677  0.6296039052705951   T   T   T
  0.2530866150017508  0.0264693836512661  0.6310136457491503   T   T   T
  0.5169491525423737  0.8644067796610173  0.3976208246282127   F   F   F
  0.6694915254237301  0.6440677966101660  0.4162352201503552   F   F   F
  0.5720338983050866  0.4237288135593218  0.4348496156724977   F   F   F
  0.7245762711864430  0.2033898305084776  0.4534640111946402   F   F   F
  0.6276646793569719  0.9871380502275845  0.4646635554691073   T   T   T
  0.5284249685467011  0.7696902571410675  0.4922122863878478   T   T   T
  0.6820760547959165  0.5477570572613540  0.5104633445477466   T   T   T
  0.5846200376061974  0.3284578232980451  0.5300401314838488   T   T   T
  0.7346238917702312  0.1045939840155259  0.5416856755319268   T   T   T
  0.6402663876177708  0.8768456569697640  0.5685370124433480   T   T   T
  0.5405749096553768  0.6643598447883354  0.5848144573217333   T   T   T
  0.6942371730391835  0.4530505540070842  0.6072733281373041   T   T   T
  0.5951170717919652  0.2440293133130444  0.6295081948120844   T   T   T
  0.4965192133332085  0.0246876179113318  0.6292343580892412   T   T   T
  0.7669491525423737  0.8644067796610173  0.3976208246282127   F   F   F
  0.9194915254237301  0.6440677966101660  0.4162352201503552   F   F   F
  0.8220338983050866  0.4237288135593218  0.4348496156724977   F   F   F
  0.9745762711864430  0.2033898305084776  0.4534640111946402   F   F   F
  0.8771350050621429  0.9890479844715592  0.4655192537892213   T   T   T
  0.7797152365900826  0.7692030704864961  0.4934510756226041   T   T   T
  0.9304050946864815  0.5496990348427702  0.5103550280515499   T   T   T
  0.8342380070697537  0.3305118534715157  0.5275575110716970   T   T   T
  0.9868740056891550  0.1036493351618097  0.5444799815326659   T   T   T
  0.8903563761868089  0.8821146639783245  0.5692600571688543   T   T   T
  0.7935844874085568  0.6694845531014145  0.5906891598764443   T   T   T
  0.9460702124601301  0.4524460145443174  0.6080406462660949   T   T   T
  0.8447735215199234  0.2338368859588338  0.6189855438917581   T   T   T
  0.7412097162247145  0.0244642525182945  0.6307877681148356   T   T   T
  0.4663379172087995  0.2725004753228430  0.6801746025978137   T   T   T
  0.4637633056831023  0.2957471936290871  0.7218707856844189   T   T   T
  0.8084788084039332  0.5499966657338418  0.6502094230748443   T   T   T
  0.8043985781718427  0.5703172757792270  0.6925253432791473   T   T   T
  0.0023837479553490  0.9560527938240382  0.7009457422128383   T   T   T
  0.0849282069761432  0.9421319214531524  0.7131448874365864   T   T   T
 
  0.00000000E+00  0.00000000E+00  0.00000000E+00
  0.00000000E+00  0.00000000E+00  0.00000000E+00
  0.00000000E+00  0.00000000E+00  0.00000000E+00
  0.00000000E+00  0.00000000E+00  0.00000000E+00
  0.00000000E+00  0.00000000E+00  0.00000000E+00
  0.00000000E+00  0.00000000E+00  0.00000000E+00
  0.00000000E+00  0.00000000E+00  0.00000000E+00
  0.00000000E+00  0.00000000E+00  0.00000000E+00
  0.00000000E+00  0.00000000E+00  0.00000000E+00
  0.00000000E+00  0.00000000E+00  0.00000000E+00
  0.00000000E+00  0.00000000E+00  0.00000000E+00
  0.00000000E+00  0.00000000E+00  0.00000000E+00
  0.00000000E+00  0.00000000E+00  0.00000000E+00
  0.00000000E+00  0.00000000E+00  0.00000000E+00
  0.00000000E+00  0.00000000E+00  0.00000000E+00
  0.00000000E+00  0.00000000E+00  0.00000000E+00
  0.00000000E+00  0.00000000E+00  0.00000000E+00
  0.00000000E+00  0.00000000E+00  0.00000000E+00
  0.00000000E+00  0.00000000E+00  0.00000000E+00
  0.00000000E+00  0.00000000E+00  0.00000000E+00
  0.00000000E+00  0.00000000E+00  0.00000000E+00
  0.00000000E+00  0.00000000E+00  0.00000000E+00
  0.00000000E+00  0.00000000E+00  0.00000000E+00
  0.00000000E+00  0.00000000E+00  0.00000000E+00
  0.00000000E+00  0.00000000E+00  0.00000000E+00
  0.00000000E+00  0.00000000E+00  0.00000000E+00
  0.00000000E+00  0.00000000E+00  0.00000000E+00
  0.00000000E+00  0.00000000E+00  0.00000000E+00
  0.00000000E+00  0.00000000E+00  0.00000000E+00
  0.00000000E+00  0.00000000E+00  0.00000000E+00
  0.00000000E+00  0.00000000E+00  0.00000000E+00
  0.00000000E+00  0.00000000E+00  0.00000000E+00
  0.00000000E+00  0.00000000E+00  0.00000000E+00
  0.00000000E+00  0.00000000E+00  0.00000000E+00
  0.00000000E+00  0.00000000E+00  0.00000000E+00
  0.00000000E+00  0.00000000E+00  0.00000000E+00
  0.00000000E+00  0.00000000E+00  0.00000000E+00
  0.00000000E+00  0.00000000E+00  0.00000000E+00
  0.00000000E+00  0.00000000E+00  0.00000000E+00
  0.00000000E+00  0.00000000E+00  0.00000000E+00
  0.00000000E+00  0.00000000E+00  0.00000000E+00
  0.00000000E+00  0.00000000E+00  0.00000000E+00
  0.00000000E+00  0.00000000E+00  0.00000000E+00
  0.00000000E+00  0.00000000E+00  0.00000000E+00
  0.00000000E+00  0.00000000E+00  0.00000000E+00
  0.00000000E+00  0.00000000E+00  0.00000000E+00
  0.00000000E+00  0.00000000E+00  0.00000000E+00
  0.00000000E+00  0.00000000E+00  0.00000000E+00
  0.00000000E+00  0.00000000E+00  0.00000000E+00
  0.00000000E+00  0.00000000E+00  0.00000000E+00
  0.00000000E+00  0.00000000E+00  0.00000000E+00
  0.00000000E+00  0.00000000E+00  0.00000000E+00
  0.00000000E+00  0.00000000E+00  0.00000000E+00
  0.00000000E+00  0.00000000E+00  0.00000000E+00
  0.00000000E+00  0.00000000E+00  0.00000000E+00
  0.00000000E+00  0.00000000E+00  0.00000000E+00
  0.00000000E+00  0.00000000E+00  0.00000000E+00
  0.00000000E+00  0.00000000E+00  0.00000000E+00
  0.00000000E+00  0.00000000E+00  0.00000000E+00
  0.00000000E+00  0.00000000E+00  0.00000000E+00
  0.00000000E+00  0.00000000E+00  0.00000000E+00
  0.00000000E+00  0.00000000E+00  0.00000000E+00
