Pt  C  O  C  O  H                       
    1.000000000000000     
    11.2213408561008308    0.0000000000000000    0.0000000000000000
     1.4026676070126025   10.7740943252779040    0.0000000000000000
     0.0000000000000000    0.0000000000000000   27.7475611781839042
   Pt   C    O    C    O    H 
    56     1     1     1     2     1
Selective dynamics
Direct
  0.0169491525423737  0.8644067796610173  0.3976208246282127   F   F   F
  0.1694915254237301  0.6440677966101660  0.4162352201503552   F   F   F
  0.0720338983050866  0.4237288135593218  0.4348496156724977   F   F   F
  0.2245762711864430  0.2033898305084776  0.4534640111946402   F   F   F
  0.1265654900284806  0.9873141559745607  0.4652596006523780   T   T   T
  0.0284056050371148  0.7714963421966524  0.4934724339949136   T   T   T
  0.1814682693358953  0.5551015859762719  0.5117598737762412   T   T   T
  0.0820123676500999  0.3354654403618973  0.5277941037215577   T   T   T
  0.2352221608933051  0.1060158329833155  0.5405489988218111   T   T   T
  0.1398500111326719  0.8817346111846672  0.5694533599545424   T   T   T
  0.0424072276626856  0.6727959849788172  0.5916648876990382   T   T   T
  0.1937479387578833  0.4559903181188934  0.6035059385863762   T   T   T
  0.0931190245611142  0.2457920635497367  0.6201013792595568   T   T   T
  0.9966336320489292  0.0313378781299079  0.6308677180915410   T   T   T
  0.2669491525423737  0.8644067796610173  0.3976208246282127   F   F   F
  0.4194915254237301  0.6440677966101660  0.4162352201503552   F   F   F
  0.3220338983050866  0.4237288135593218  0.4348496156724977   F   F   F
  0.4745762711864430  0.2033898305084776  0.4534640111946402   F   F   F
  0.3765637236664054  0.9882464347147372  0.4643924792444736   T   T   T
  0.2783535583556541  0.7721417815345692  0.4934587781061693   T   T   T
  0.4311819743068284  0.5527795803854958  0.5095329088363197   T   T   T
  0.3318353927510332  0.3332791458452917  0.5265873067802267   T   T   T
  0.4865663702625120  0.1061443266411869  0.5408042069331257   T   T   T
  0.3889082580923835  0.8866506979088543  0.5670900790283960   T   T   T
  0.2918495926635262  0.6717662743508228  0.5932561959846492   T   T   T
  0.4413974424505938  0.4523566201504385  0.6021842430087383   T   T   T
  0.3393527635575516  0.2437839098603511  0.6190629075275134   T   T   T
  0.2448423679243592  0.0307389382793671  0.6308796068388535   T   T   T
  0.5169491525423737  0.8644067796610173  0.3976208246282127   F   F   F
  0.6694915254237301  0.6440677966101660  0.4162352201503552   F   F   F
  0.5720338983050866  0.4237288135593218  0.4348496156724977   F   F   F
  0.7245762711864430  0.2033898305084776  0.4534640111946402   F   F   F
  0.6266128910985030  0.9872335846482085  0.4655186573038921   T   T   T
  0.5282532377883609  0.7720928883353915  0.4934753338815454   T   T   T
  0.6792852834833988  0.5543721969012845  0.5109966275787871   T   T   T
  0.5837739981462311  0.3302382771689918  0.5297409573219362   T   T   T
  0.7373408047273390  0.1080661770515211  0.5411010350195435   T   T   T
  0.6395535718278673  0.8830444555984459  0.5692285589235498   T   T   T
  0.5404883159263502  0.6711689630386253  0.5924976645699923   T   T   T
  0.6930310091956198  0.4559378230169635  0.6020411246138822   T   T   T
  0.5958643922580769  0.2470911000977909  0.6247754833500170   T   T   T
  0.4933556159046213  0.0321869374273050  0.6299785403092755   T   T   T
  0.7669491525423737  0.8644067796610173  0.3976208246282127   F   F   F
  0.9194915254237301  0.6440677966101660  0.4162352201503552   F   F   F
  0.8220338983050866  0.4237288135593218  0.4348496156724977   F   F   F
  0.9745762711864430  0.2033898305084776  0.4534640111946402   F   F   F
  0.8760755472247302  0.9883479493914469  0.4646440513841206   T   T   T
  0.7783298787512176  0.7718112326718899  0.4932290636608216   T   T   T
  0.9307062258368813  0.5540310156788771  0.5107071138404031   T   T   T
  0.8348115707886239  0.3353316137077877  0.5277467434178845   T   T   T
  0.9868639209498357  0.1048894943063626  0.5405531747002328   T   T   T
  0.8897232146191543  0.8849050474525774  0.5678581244402710   T   T   T
  0.7906336375331807  0.6728117667082157  0.5909373334702333   T   T   T
  0.9431664412662386  0.4593288939439719  0.6088566415661801   T   T   T
  0.8485584191988742  0.2457578745198483  0.6202591315933822   T   T   T
  0.7485051591165810  0.0310085972836384  0.6298832159888150   T   T   T
  0.4167851376097572  0.6791587692898217  0.6455587272221142   T   T   T
  0.4157049543716075  0.6952430452905405  0.6877473691332324   T   T   T
  0.9221012552899538  0.6280030017298291  0.6455276115166337   T   T   T
  0.9180385945975303  0.6536162519273815  0.6873855860257246   T   T   T
  0.5915130354931177  0.2484682933565637  0.6963224144083225   T   T   T
  0.6688255611602073  0.2724218700358034  0.7067140670780514   T   T   T
 
  0.00000000E+00  0.00000000E+00  0.00000000E+00
  0.00000000E+00  0.00000000E+00  0.00000000E+00
  0.00000000E+00  0.00000000E+00  0.00000000E+00
  0.00000000E+00  0.00000000E+00  0.00000000E+00
  0.00000000E+00  0.00000000E+00  0.00000000E+00
  0.00000000E+00  0.00000000E+00  0.00000000E+00
  0.00000000E+00  0.00000000E+00  0.00000000E+00
  0.00000000E+00  0.00000000E+00  0.00000000E+00
  0.00000000E+00  0.00000000E+00  0.00000000E+00
  0.00000000E+00  0.00000000E+00  0.00000000E+00
  0.00000000E+00  0.00000000E+00  0.00000000E+00
  0.00000000E+00  0.00000000E+00  0.00000000E+00
  0.00000000E+00  0.00000000E+00  0.00000000E+00
  0.00000000E+00  0.00000000E+00  0.00000000E+00
  0.00000000E+00  0.00000000E+00  0.00000000E+00
  0.00000000E+00  0.00000000E+00  0.00000000E+00
  0.00000000E+00  0.00000000E+00  0.00000000E+00
  0.00000000E+00  0.00000000E+00  0.00000000E+00
  0.00000000E+00  0.00000000E+00  0.00000000E+00
  0.00000000E+00  0.00000000E+00  0.00000000E+00
  0.00000000E+00  0.00000000E+00  0.00000000E+00
  0.00000000E+00  0.00000000E+00  0.00000000E+00
  0.00000000E+00  0.00000000E+00  0.00000000E+00
  0.00000000E+00  0.00000000E+00  0.00000000E+00
  0.00000000E+00  0.00000000E+00  0.00000000E+00
  0.00000000E+00  0.00000000E+00  0.00000000E+00
  0.00000000E+00  0.00000000E+00  0.00000000E+00
  0.00000000E+00  0.00000000E+00  0.00000000E+00
  0.00000000E+00  0.00000000E+00  0.00000000E+00
  0.00000000E+00  0.00000000E+00  0.00000000E+00
  0.00000000E+00  0.00000000E+00  0.00000000E+00
  0.00000000E+00  0.00000000E+00  0.00000000E+00
  0.00000000E+00  0.00000000E+00  0.00000000E+00
  0.00000000E+00  0.00000000E+00  0.00000000E+00
  0.00000000E+00  0.00000000E+00  0.00000000E+00
  0.00000000E+00  0.00000000E+00  0.00000000E+00
  0.00000000E+00  0.00000000E+00  0.00000000E+00
  0.00000000E+00  0.00000000E+00  0.00000000E+00
  0.00000000E+00  0.00000000E+00  0.00000000E+00
  0.00000000E+00  0.00000000E+00  0.00000000E+00
  0.00000000E+00  0.00000000E+00  0.00000000E+00
  0.00000000E+00  0.00000000E+00  0.00000000E+00
  0.00000000E+00  0.00000000E+00  0.00000000E+00
  0.00000000E+00  0.00000000E+00  0.00000000E+00
  0.00000000E+00  0.00000000E+00  0.00000000E+00
  0.00000000E+00  0.00000000E+00  0.00000000E+00
  0.00000000E+00  0.00000000E+00  0.00000000E+00
  0.00000000E+00  0.00000000E+00  0.00000000E+00
  0.00000000E+00  0.00000000E+00  0.00000000E+00
  0.00000000E+00  0.00000000E+00  0.00000000E+00
  0.00000000E+00  0.00000000E+00  0.00000000E+00
  0.00000000E+00  0.00000000E+00  0.00000000E+00
  0.00000000E+00  0.00000000E+00  0.00000000E+00
  0.00000000E+00  0.00000000E+00  0.00000000E+00
  0.00000000E+00  0.00000000E+00  0.00000000E+00
  0.00000000E+00  0.00000000E+00  0.00000000E+00
  0.00000000E+00  0.00000000E+00  0.00000000E+00
  0.00000000E+00  0.00000000E+00  0.00000000E+00
  0.00000000E+00  0.00000000E+00  0.00000000E+00
  0.00000000E+00  0.00000000E+00  0.00000000E+00
  0.00000000E+00  0.00000000E+00  0.00000000E+00
  0.00000000E+00  0.00000000E+00  0.00000000E+00
