Pt  C  O  C  O  H                       
    1.000000000000000     
    11.2213408561008308    0.0000000000000000    0.0000000000000000
     1.4026676070126025   10.7740943252779040    0.0000000000000000
     0.0000000000000000    0.0000000000000000   27.7475611781839042
   Pt   C    O    C    O    H 
    56     1     1     1     2     1
Selective dynamics
Direct
  0.0169491525423737  0.8644067796610173  0.3976208246282127   F   F   F
  0.1694915254237301  0.6440677966101660  0.4162352201503552   F   F   F
  0.0720338983050866  0.4237288135593218  0.4348496156724977   F   F   F
  0.2245762711864430  0.2033898305084776  0.4534640111946402   F   F   F
  0.1269282501330723  0.9880438255625114  0.4648159048068849   T   T   T
  0.0281633543004494  0.7712903313707632  0.4928252591308782   T   T   T
  0.1813921390236952  0.5515328447541332  0.5110363383816505   T   T   T
  0.0849439156768451  0.3290412727600808  0.5269773849399023   T   T   T
  0.2377678203580149  0.1044612557986093  0.5407409618781722   T   T   T
  0.1357232569724701  0.8835678105220409  0.5686199535159087   T   T   T
  0.0387602715207776  0.6672755922404875  0.5857407064870046   T   T   T
  0.1899980925968546  0.4557480253018043  0.6035266963074702   T   T   T
  0.0998336590099653  0.2420971625366340  0.6195094436125225   T   T   T
  0.9987795718241019  0.0281685631538151  0.6338590901398886   T   T   T
  0.2669491525423737  0.8644067796610173  0.3976208246282127   F   F   F
  0.4194915254237301  0.6440677966101660  0.4162352201503552   F   F   F
  0.3220338983050866  0.4237288135593218  0.4348496156724977   F   F   F
  0.4745762711864430  0.2033898305084776  0.4534640111946402   F   F   F
  0.3760911091065936  0.9886031714799508  0.4640043842938352   T   T   T
  0.2792483142866510  0.7681749396478376  0.4931206449761116   T   T   T
  0.4316388810464769  0.5487025357328702  0.5127688966246012   T   T   T
  0.3340898495340281  0.3329229999515013  0.5281164280853263   T   T   T
  0.4872744498041359  0.1051192444575909  0.5411008421287913   T   T   T
  0.3906137112334219  0.8815752551938569  0.5663863702856660   T   T   T
  0.2909612195837470  0.6711985938713538  0.5914259428107976   T   T   T
  0.4437005812160883  0.4580887481772293  0.6097189410891558   T   T   T
  0.3401357198381311  0.2414049550704704  0.6197324046875889   T   T   T
  0.2505950384507770  0.0232839380929835  0.6307018795800174   T   T   T
  0.5169491525423737  0.8644067796610173  0.3976208246282127   F   F   F
  0.6694915254237301  0.6440677966101660  0.4162352201503552   F   F   F
  0.5720338983050866  0.4237288135593218  0.4348496156724977   F   F   F
  0.7245762711864430  0.2033898305084776  0.4534640111946402   F   F   F
  0.6264716158560907  0.9880892292511222  0.4644726604775213   T   T   T
  0.5287671214153679  0.7687792938807742  0.4921710463065791   T   T   T
  0.6834939225750779  0.5433387246036333  0.5092634272787741   T   T   T
  0.5832123395170349  0.3283584582535976  0.5295385361242571   T   T   T
  0.7352997546784500  0.1037661439995167  0.5411162613600821   T   T   T
  0.6410525205944333  0.8795085191859936  0.5681948133104057   T   T   T
  0.5459596123679952  0.6642318003272201  0.5844072361276622   T   T   T
  0.7009224252876365  0.4517063523138824  0.6036126297978677   T   T   T
  0.5921385860922735  0.2470119801390295  0.6307830627292471   T   T   T
  0.4946503954349060  0.0278403222989901  0.6303434641672662   T   T   T
  0.7669491525423737  0.8644067796610173  0.3976208246282127   F   F   F
  0.9194915254237301  0.6440677966101660  0.4162352201503552   F   F   F
  0.8220338983050866  0.4237288135593218  0.4348496156724977   F   F   F
  0.9745762711864430  0.2033898305084776  0.4534640111946402   F   F   F
  0.8765215773298931  0.9884016648370322  0.4645166861180100   T   T   T
  0.7788203077435383  0.7689626808610137  0.4923279276226371   T   T   T
  0.9318390037461596  0.5451989440281885  0.5092617031915523   T   T   T
  0.8348488134253377  0.3230497843346293  0.5303848291853297   T   T   T
  0.9864388886569297  0.1014051130532128  0.5412637797596589   T   T   T
  0.8878965792612430  0.8825400052223480  0.5695349446884855   T   T   T
  0.7933345835478667  0.6644864083488117  0.5856235636126841   T   T   T
  0.9453686583603097  0.4529772350584687  0.6037044210269376   T   T   T
  0.8467730473558818  0.2443169149262212  0.6303003017489168   T   T   T
  0.7361461640605869  0.0309879527288429  0.6302260780521686   T   T   T
  0.5095379670772665  0.3845317505882444  0.6716530801301067   T   T   T
  0.5055283537711014  0.4080681705064894  0.7133194493697277   T   T   T
  0.9176342682239594  0.1432850563892337  0.6858124349965232   T   T   T
  0.9194707495397944  0.1438337372340059  0.7284518219471496   T   T   T
  0.2822960026660712  0.7278292158536468  0.6598568098728183   T   T   T
  0.3607582021168909  0.6988113150714522  0.6741977139148463   T   T   T
 
  0.00000000E+00  0.00000000E+00  0.00000000E+00
  0.00000000E+00  0.00000000E+00  0.00000000E+00
  0.00000000E+00  0.00000000E+00  0.00000000E+00
  0.00000000E+00  0.00000000E+00  0.00000000E+00
  0.00000000E+00  0.00000000E+00  0.00000000E+00
  0.00000000E+00  0.00000000E+00  0.00000000E+00
  0.00000000E+00  0.00000000E+00  0.00000000E+00
  0.00000000E+00  0.00000000E+00  0.00000000E+00
  0.00000000E+00  0.00000000E+00  0.00000000E+00
  0.00000000E+00  0.00000000E+00  0.00000000E+00
  0.00000000E+00  0.00000000E+00  0.00000000E+00
  0.00000000E+00  0.00000000E+00  0.00000000E+00
  0.00000000E+00  0.00000000E+00  0.00000000E+00
  0.00000000E+00  0.00000000E+00  0.00000000E+00
  0.00000000E+00  0.00000000E+00  0.00000000E+00
  0.00000000E+00  0.00000000E+00  0.00000000E+00
  0.00000000E+00  0.00000000E+00  0.00000000E+00
  0.00000000E+00  0.00000000E+00  0.00000000E+00
  0.00000000E+00  0.00000000E+00  0.00000000E+00
  0.00000000E+00  0.00000000E+00  0.00000000E+00
  0.00000000E+00  0.00000000E+00  0.00000000E+00
  0.00000000E+00  0.00000000E+00  0.00000000E+00
  0.00000000E+00  0.00000000E+00  0.00000000E+00
  0.00000000E+00  0.00000000E+00  0.00000000E+00
  0.00000000E+00  0.00000000E+00  0.00000000E+00
  0.00000000E+00  0.00000000E+00  0.00000000E+00
  0.00000000E+00  0.00000000E+00  0.00000000E+00
  0.00000000E+00  0.00000000E+00  0.00000000E+00
  0.00000000E+00  0.00000000E+00  0.00000000E+00
  0.00000000E+00  0.00000000E+00  0.00000000E+00
  0.00000000E+00  0.00000000E+00  0.00000000E+00
  0.00000000E+00  0.00000000E+00  0.00000000E+00
  0.00000000E+00  0.00000000E+00  0.00000000E+00
  0.00000000E+00  0.00000000E+00  0.00000000E+00
  0.00000000E+00  0.00000000E+00  0.00000000E+00
  0.00000000E+00  0.00000000E+00  0.00000000E+00
  0.00000000E+00  0.00000000E+00  0.00000000E+00
  0.00000000E+00  0.00000000E+00  0.00000000E+00
  0.00000000E+00  0.00000000E+00  0.00000000E+00
  0.00000000E+00  0.00000000E+00  0.00000000E+00
  0.00000000E+00  0.00000000E+00  0.00000000E+00
  0.00000000E+00  0.00000000E+00  0.00000000E+00
  0.00000000E+00  0.00000000E+00  0.00000000E+00
  0.00000000E+00  0.00000000E+00  0.00000000E+00
  0.00000000E+00  0.00000000E+00  0.00000000E+00
  0.00000000E+00  0.00000000E+00  0.00000000E+00
  0.00000000E+00  0.00000000E+00  0.00000000E+00
  0.00000000E+00  0.00000000E+00  0.00000000E+00
  0.00000000E+00  0.00000000E+00  0.00000000E+00
  0.00000000E+00  0.00000000E+00  0.00000000E+00
  0.00000000E+00  0.00000000E+00  0.00000000E+00
  0.00000000E+00  0.00000000E+00  0.00000000E+00
  0.00000000E+00  0.00000000E+00  0.00000000E+00
  0.00000000E+00  0.00000000E+00  0.00000000E+00
  0.00000000E+00  0.00000000E+00  0.00000000E+00
  0.00000000E+00  0.00000000E+00  0.00000000E+00
  0.00000000E+00  0.00000000E+00  0.00000000E+00
  0.00000000E+00  0.00000000E+00  0.00000000E+00
  0.00000000E+00  0.00000000E+00  0.00000000E+00
  0.00000000E+00  0.00000000E+00  0.00000000E+00
  0.00000000E+00  0.00000000E+00  0.00000000E+00
  0.00000000E+00  0.00000000E+00  0.00000000E+00
