Pt  C  O  C  O  H                       
    1.000000000000000     
    11.2213408561008308    0.0000000000000000    0.0000000000000000
     1.4026676070126025   10.7740943252779040    0.0000000000000000
     0.0000000000000000    0.0000000000000000   27.7475611781839042
   Pt   C    O    C    O    H 
    56     1     1     1     2     1
Selective dynamics
Direct
  0.0169491525423737  0.8644067796610173  0.3976208246282127   F   F   F
  0.1694915254237301  0.6440677966101660  0.4162352201503552   F   F   F
  0.0720338983050866  0.4237288135593218  0.4348496156724977   F   F   F
  0.2245762711864430  0.2033898305084776  0.4534640111946402   F   F   F
  0.1258426453206074  0.9891557662935435  0.4640377252044212   T   T   T
  0.0270186104017085  0.7679493471746226  0.4928163830655070   T   T   T
  0.1801073795685115  0.5482857861229398  0.5099765438919104   T   T   T
  0.0836954723705213  0.3298211900078175  0.5288454236004591   T   T   T
  0.2363235765344815  0.1062756955755543  0.5409042335320269   T   T   T
  0.1382463322383051  0.8843126193455745  0.5657649137217649   T   T   T
  0.0387284223327581  0.6708492552446689  0.5903647232262984   T   T   T
  0.1944832862633175  0.4551899357650995  0.6034009174945257   T   T   T
  0.0967077464573313  0.2426265355241838  0.6254540687502105   T   T   T
  0.9965640127783120  0.0229881219850817  0.6301021542167999   T   T   T
  0.2669491525423737  0.8644067796610173  0.3976208246282127   F   F   F
  0.4194915254237301  0.6440677966101660  0.4162352201503552   F   F   F
  0.3220338983050866  0.4237288135593218  0.4348496156724977   F   F   F
  0.4745762711864430  0.2033898305084776  0.4534640111946402   F   F   F
  0.3768124597709641  0.9881495700526232  0.4644334472405088   T   T   T
  0.2781642464775820  0.7709135281821665  0.4915123761161136   T   T   T
  0.4314282063236508  0.5486271622204301  0.5101943737274842   T   T   T
  0.3350284307884615  0.3314577907119797  0.5289530824738319   T   T   T
  0.4872024558868925  0.1034065368291982  0.5406191280608368   T   T   T
  0.3886579350447935  0.8826790692849813  0.5682597294380326   T   T   T
  0.2876717469144744  0.6687317549142713  0.5831076598595935   T   T   T
  0.4403790726201292  0.4583028401169121  0.6105287936246361   T   T   T
  0.3446717483165762  0.2449468743223812  0.6220056064486987   T   T   T
  0.2452801404518817  0.0290966852424141  0.6302725882569677   T   T   T
  0.5169491525423737  0.8644067796610173  0.3976208246282127   F   F   F
  0.6694915254237301  0.6440677966101660  0.4162352201503552   F   F   F
  0.5720338983050866  0.4237288135593218  0.4348496156724977   F   F   F
  0.7245762711864430  0.2033898305084776  0.4534640111946402   F   F   F
  0.6262696913380252  0.9878924402474075  0.4644208605803269   T   T   T
  0.5281938319872982  0.7691929543275097  0.4936948160363693   T   T   T
  0.6796158627150016  0.5491386919126120  0.5099666448997692   T   T   T
  0.5826957366319936  0.3303503800586516  0.5285800243531386   T   T   T
  0.7366366154291388  0.1051897230623151  0.5409566291820870   T   T   T
  0.6382130509797828  0.8801020502856733  0.5691172395938173   T   T   T
  0.5391395014385875  0.6706807220387352  0.5921792646227985   T   T   T
  0.6936706813708525  0.4522483568757927  0.6029938044786459   T   T   T
  0.5935241575691815  0.2425932889497955  0.6214634796640397   T   T   T
  0.4943785267536858  0.0303505445030437  0.6308763231335107   T   T   T
  0.7669491525423737  0.8644067796610173  0.3976208246282127   F   F   F
  0.9194915254237301  0.6440677966101660  0.4162352201503552   F   F   F
  0.8220338983050866  0.4237288135593218  0.4348496156724977   F   F   F
  0.9745762711864430  0.2033898305084776  0.4534640111946402   F   F   F
  0.8765651570785500  0.9882813406865419  0.4643730567057089   T   T   T
  0.7772193548992765  0.7697986249383448  0.4922975148603721   T   T   T
  0.9316647510339984  0.5487093150806162  0.5124592424662930   T   T   T
  0.8337984365203370  0.3305830028087252  0.5282672518607814   T   T   T
  0.9861640284248376  0.1063393047320025  0.5413655236062116   T   T   T
  0.8861781060415581  0.8827488392265920  0.5670028408734059   T   T   T
  0.7896325472239670  0.6653631409358250  0.5853696977515838   T   T   T
  0.9417181918127453  0.4574881608578414  0.6082853313559667   T   T   T
  0.8426609028410335  0.2415342887863009  0.6252056022318810   T   T   T
  0.7452172022285373  0.0288180987979448  0.6305553185032906   T   T   T
  0.4915719385469539  0.5916376769215160  0.6535278645317953   T   T   T
  0.4891325334784843  0.6143443884022218  0.6952306368497738   T   T   T
  0.9578663559859742  0.3378633821322877  0.6671205925792796   T   T   T
  0.9550272777237641  0.3553011551649827  0.7097191823740515   T   T   T
  0.0347723282790835  0.7258782684930124  0.6590712523105763   T   T   T
  0.1116948595404242  0.6908748457641466  0.6733442739783546   T   T   T
 
  0.00000000E+00  0.00000000E+00  0.00000000E+00
  0.00000000E+00  0.00000000E+00  0.00000000E+00
  0.00000000E+00  0.00000000E+00  0.00000000E+00
  0.00000000E+00  0.00000000E+00  0.00000000E+00
  0.00000000E+00  0.00000000E+00  0.00000000E+00
  0.00000000E+00  0.00000000E+00  0.00000000E+00
  0.00000000E+00  0.00000000E+00  0.00000000E+00
  0.00000000E+00  0.00000000E+00  0.00000000E+00
  0.00000000E+00  0.00000000E+00  0.00000000E+00
  0.00000000E+00  0.00000000E+00  0.00000000E+00
  0.00000000E+00  0.00000000E+00  0.00000000E+00
  0.00000000E+00  0.00000000E+00  0.00000000E+00
  0.00000000E+00  0.00000000E+00  0.00000000E+00
  0.00000000E+00  0.00000000E+00  0.00000000E+00
  0.00000000E+00  0.00000000E+00  0.00000000E+00
  0.00000000E+00  0.00000000E+00  0.00000000E+00
  0.00000000E+00  0.00000000E+00  0.00000000E+00
  0.00000000E+00  0.00000000E+00  0.00000000E+00
  0.00000000E+00  0.00000000E+00  0.00000000E+00
  0.00000000E+00  0.00000000E+00  0.00000000E+00
  0.00000000E+00  0.00000000E+00  0.00000000E+00
  0.00000000E+00  0.00000000E+00  0.00000000E+00
  0.00000000E+00  0.00000000E+00  0.00000000E+00
  0.00000000E+00  0.00000000E+00  0.00000000E+00
  0.00000000E+00  0.00000000E+00  0.00000000E+00
  0.00000000E+00  0.00000000E+00  0.00000000E+00
  0.00000000E+00  0.00000000E+00  0.00000000E+00
  0.00000000E+00  0.00000000E+00  0.00000000E+00
  0.00000000E+00  0.00000000E+00  0.00000000E+00
  0.00000000E+00  0.00000000E+00  0.00000000E+00
  0.00000000E+00  0.00000000E+00  0.00000000E+00
  0.00000000E+00  0.00000000E+00  0.00000000E+00
  0.00000000E+00  0.00000000E+00  0.00000000E+00
  0.00000000E+00  0.00000000E+00  0.00000000E+00
  0.00000000E+00  0.00000000E+00  0.00000000E+00
  0.00000000E+00  0.00000000E+00  0.00000000E+00
  0.00000000E+00  0.00000000E+00  0.00000000E+00
  0.00000000E+00  0.00000000E+00  0.00000000E+00
  0.00000000E+00  0.00000000E+00  0.00000000E+00
  0.00000000E+00  0.00000000E+00  0.00000000E+00
  0.00000000E+00  0.00000000E+00  0.00000000E+00
  0.00000000E+00  0.00000000E+00  0.00000000E+00
  0.00000000E+00  0.00000000E+00  0.00000000E+00
  0.00000000E+00  0.00000000E+00  0.00000000E+00
  0.00000000E+00  0.00000000E+00  0.00000000E+00
  0.00000000E+00  0.00000000E+00  0.00000000E+00
  0.00000000E+00  0.00000000E+00  0.00000000E+00
  0.00000000E+00  0.00000000E+00  0.00000000E+00
  0.00000000E+00  0.00000000E+00  0.00000000E+00
  0.00000000E+00  0.00000000E+00  0.00000000E+00
  0.00000000E+00  0.00000000E+00  0.00000000E+00
  0.00000000E+00  0.00000000E+00  0.00000000E+00
  0.00000000E+00  0.00000000E+00  0.00000000E+00
  0.00000000E+00  0.00000000E+00  0.00000000E+00
  0.00000000E+00  0.00000000E+00  0.00000000E+00
  0.00000000E+00  0.00000000E+00  0.00000000E+00
  0.00000000E+00  0.00000000E+00  0.00000000E+00
  0.00000000E+00  0.00000000E+00  0.00000000E+00
  0.00000000E+00  0.00000000E+00  0.00000000E+00
  0.00000000E+00  0.00000000E+00  0.00000000E+00
  0.00000000E+00  0.00000000E+00  0.00000000E+00
  0.00000000E+00  0.00000000E+00  0.00000000E+00
