Pt  C  O  C  O  H                       
    1.000000000000000     
    11.2213408561008308    0.0000000000000000    0.0000000000000000
     1.4026676070126025   10.7740943252779040    0.0000000000000000
     0.0000000000000000    0.0000000000000000   27.7475611781839042
   Pt   C    O    C    O    H 
    56     1     1     1     2     1
Selective dynamics
Direct
  0.0169491525423737  0.8644067796610173  0.3976208246282127   F   F   F
  0.1694915254237301  0.6440677966101660  0.4162352201503552   F   F   F
  0.0720338983050866  0.4237288135593218  0.4348496156724977   F   F   F
  0.2245762711864430  0.2033898305084776  0.4534640111946402   F   F   F
  0.1268609461589792  0.9878247105882582  0.4650921432480727   T   T   T
  0.0278764430439042  0.7696796403752130  0.4922597248023055   T   T   T
  0.1813157042940787  0.5466566014757512  0.5101033508705365   T   T   T
  0.0846720348115125  0.3290095333537259  0.5289666610008430   T   T   T
  0.2364871225603880  0.1054904550540429  0.5412686893828508   T   T   T
  0.1388742618064912  0.8801115827506678  0.5681506923211699   T   T   T
  0.0412735673339396  0.6647084122212902  0.5844169739806394   T   T   T
  0.1937773573023958  0.4538666116261708  0.6079622669181660   T   T   T
  0.0947614424304290  0.2412397705102109  0.6265465599633193   T   T   T
  0.9962992305782512  0.0288487041512012  0.6308474861673737   T   T   T
  0.2669491525423737  0.8644067796610173  0.3976208246282127   F   F   F
  0.4194915254237301  0.6440677966101660  0.4162352201503552   F   F   F
  0.3220338983050866  0.4237288135593218  0.4348496156724977   F   F   F
  0.4745762711864430  0.2033898305084776  0.4534640111946402   F   F   F
  0.3777974048095228  0.9885830310524258  0.4652146897533184   T   T   T
  0.2788786108848995  0.7703269997410092  0.4923666758200753   T   T   T
  0.4318988451141684  0.5504344900434165  0.5103736189513676   T   T   T
  0.3355473349070718  0.3321387768674908  0.5287068604541346   T   T   T
  0.4874684161636764  0.1020871091721533  0.5442633017634284   T   T   T
  0.3888545214005193  0.8830540799085436  0.5693412584131344   T   T   T
  0.2878584252324286  0.6665921612668262  0.5848075570614392   T   T   T
  0.4416162578147124  0.4560040338315819  0.6096465351156843   T   T   T
  0.3497429009262568  0.2375584158153162  0.6192945894091950   T   T   T
  0.2411932712470951  0.0274808096614254  0.6310348194453894   T   T   T
  0.5169491525423737  0.8644067796610173  0.3976208246282127   F   F   F
  0.6694915254237301  0.6440677966101660  0.4162352201503552   F   F   F
  0.5720338983050866  0.4237288135593218  0.4348496156724977   F   F   F
  0.7245762711864430  0.2033898305084776  0.4534640111946402   F   F   F
  0.6252146840834262  0.9878436453288483  0.4660311871513836   T   T   T
  0.5284101253010145  0.7702177978251017  0.4942809369571902   T   T   T
  0.6790762579805218  0.5513617891320102  0.5103632907453578   T   T   T
  0.5825576543370227  0.3304040804625141  0.5274235853344079   T   T   T
  0.7381816913199194  0.1025590091728601  0.5405841358272989   T   T   T
  0.6398178525543077  0.8791926211389350  0.5703061693895194   T   T   T
  0.5402106770865424  0.6697316019466669  0.5929062665547352   T   T   T
  0.6964031692762795  0.4496104104290455  0.6032042368917161   T   T   T
  0.5959127388006774  0.2368562863087160  0.6188867962474658   T   T   T
  0.4997139681015551  0.0229939538356587  0.6356706150875711   T   T   T
  0.7669491525423737  0.8644067796610173  0.3976208246282127   F   F   F
  0.9194915254237301  0.6440677966101660  0.4162352201503552   F   F   F
  0.8220338983050866  0.4237288135593218  0.4348496156724977   F   F   F
  0.9745762711864430  0.2033898305084776  0.4534640111946402   F   F   F
  0.8761344544941833  0.9875546863263772  0.4645168358506809   T   T   T
  0.7777594182842442  0.7703448132768055  0.4927175651475442   T   T   T
  0.9307450580986173  0.5462194439368079  0.5102727804990128   T   T   T
  0.8339047880686393  0.3310362983297960  0.5275010176875243   T   T   T
  0.9877494893440114  0.1036231460299869  0.5406667299571492   T   T   T
  0.8904680195241284  0.8784057873459099  0.5688244365681780   T   T   T
  0.7920629521956498  0.6637724934825934  0.5863332991525271   T   T   T
  0.9412891843928429  0.4552738213513547  0.6087171704929129   T   T   T
  0.8419290827849150  0.2396055215803034  0.6197391221487920   T   T   T
  0.7530792318522506  0.0240874900013731  0.6311548018100449   T   T   T
  0.4911989084723238  0.5886596689223174  0.6536176702392115   T   T   T
  0.4883114011447470  0.6099208014679154  0.6953875363524716   T   T   T
  0.0736081867726327  0.4113315352944150  0.6622482402235369   T   T   T
  0.0712037346572701  0.4352952181875889  0.7042931717169469   T   T   T
  0.5015004556840787  0.9558491694786756  0.7011792336133639   T   T   T
  0.5847089790127874  0.9375655391665809  0.7124612081285923   T   T   T
 
  0.00000000E+00  0.00000000E+00  0.00000000E+00
  0.00000000E+00  0.00000000E+00  0.00000000E+00
  0.00000000E+00  0.00000000E+00  0.00000000E+00
  0.00000000E+00  0.00000000E+00  0.00000000E+00
  0.00000000E+00  0.00000000E+00  0.00000000E+00
  0.00000000E+00  0.00000000E+00  0.00000000E+00
  0.00000000E+00  0.00000000E+00  0.00000000E+00
  0.00000000E+00  0.00000000E+00  0.00000000E+00
  0.00000000E+00  0.00000000E+00  0.00000000E+00
  0.00000000E+00  0.00000000E+00  0.00000000E+00
  0.00000000E+00  0.00000000E+00  0.00000000E+00
  0.00000000E+00  0.00000000E+00  0.00000000E+00
  0.00000000E+00  0.00000000E+00  0.00000000E+00
  0.00000000E+00  0.00000000E+00  0.00000000E+00
  0.00000000E+00  0.00000000E+00  0.00000000E+00
  0.00000000E+00  0.00000000E+00  0.00000000E+00
  0.00000000E+00  0.00000000E+00  0.00000000E+00
  0.00000000E+00  0.00000000E+00  0.00000000E+00
  0.00000000E+00  0.00000000E+00  0.00000000E+00
  0.00000000E+00  0.00000000E+00  0.00000000E+00
  0.00000000E+00  0.00000000E+00  0.00000000E+00
  0.00000000E+00  0.00000000E+00  0.00000000E+00
  0.00000000E+00  0.00000000E+00  0.00000000E+00
  0.00000000E+00  0.00000000E+00  0.00000000E+00
  0.00000000E+00  0.00000000E+00  0.00000000E+00
  0.00000000E+00  0.00000000E+00  0.00000000E+00
  0.00000000E+00  0.00000000E+00  0.00000000E+00
  0.00000000E+00  0.00000000E+00  0.00000000E+00
  0.00000000E+00  0.00000000E+00  0.00000000E+00
  0.00000000E+00  0.00000000E+00  0.00000000E+00
  0.00000000E+00  0.00000000E+00  0.00000000E+00
  0.00000000E+00  0.00000000E+00  0.00000000E+00
  0.00000000E+00  0.00000000E+00  0.00000000E+00
  0.00000000E+00  0.00000000E+00  0.00000000E+00
  0.00000000E+00  0.00000000E+00  0.00000000E+00
  0.00000000E+00  0.00000000E+00  0.00000000E+00
  0.00000000E+00  0.00000000E+00  0.00000000E+00
  0.00000000E+00  0.00000000E+00  0.00000000E+00
  0.00000000E+00  0.00000000E+00  0.00000000E+00
  0.00000000E+00  0.00000000E+00  0.00000000E+00
  0.00000000E+00  0.00000000E+00  0.00000000E+00
  0.00000000E+00  0.00000000E+00  0.00000000E+00
  0.00000000E+00  0.00000000E+00  0.00000000E+00
  0.00000000E+00  0.00000000E+00  0.00000000E+00
  0.00000000E+00  0.00000000E+00  0.00000000E+00
  0.00000000E+00  0.00000000E+00  0.00000000E+00
  0.00000000E+00  0.00000000E+00  0.00000000E+00
  0.00000000E+00  0.00000000E+00  0.00000000E+00
  0.00000000E+00  0.00000000E+00  0.00000000E+00
  0.00000000E+00  0.00000000E+00  0.00000000E+00
  0.00000000E+00  0.00000000E+00  0.00000000E+00
  0.00000000E+00  0.00000000E+00  0.00000000E+00
  0.00000000E+00  0.00000000E+00  0.00000000E+00
  0.00000000E+00  0.00000000E+00  0.00000000E+00
  0.00000000E+00  0.00000000E+00  0.00000000E+00
  0.00000000E+00  0.00000000E+00  0.00000000E+00
  0.00000000E+00  0.00000000E+00  0.00000000E+00
  0.00000000E+00  0.00000000E+00  0.00000000E+00
  0.00000000E+00  0.00000000E+00  0.00000000E+00
  0.00000000E+00  0.00000000E+00  0.00000000E+00
  0.00000000E+00  0.00000000E+00  0.00000000E+00
  0.00000000E+00  0.00000000E+00  0.00000000E+00
