Pt  C  O  C  O  H                       
    1.000000000000000     
    11.2213408561008308    0.0000000000000000    0.0000000000000000
     1.4026676070126025   10.7740943252779040    0.0000000000000000
     0.0000000000000000    0.0000000000000000   27.7475611781839042
   Pt   C    O    C    O    H 
    56     1     1     1     2     1
Selective dynamics
Direct
  0.0169491525423737  0.8644067796610173  0.3976208246282127   F   F   F
  0.1694915254237301  0.6440677966101660  0.4162352201503552   F   F   F
  0.0720338983050866  0.4237288135593218  0.4348496156724977   F   F   F
  0.2245762711864430  0.2033898305084776  0.4534640111946402   F   F   F
  0.1263838308775957  0.9888363056599324  0.4645714290199726   T   T   T
  0.0272593095003579  0.7721448363957212  0.4925879148268508   T   T   T
  0.1811057076103723  0.5452869388490384  0.5089844464583867   T   T   T
  0.0849228684881768  0.3266172682840379  0.5292603627684677   T   T   T
  0.2369705093992928  0.1062452675424165  0.5405988467785749   T   T   T
  0.1371289170189283  0.8848968709242563  0.5687233553481744   T   T   T
  0.0412158017529645  0.6686406037228594  0.5848448511818742   T   T   T
  0.1898354130140049  0.4579396954893051  0.6039531225912663   T   T   T
  0.0935839971895576  0.2502912955231512  0.6275168515586603   T   T   T
  0.9956984587353190  0.0320029394986010  0.6315927218578647   T   T   T
  0.2669491525423737  0.8644067796610173  0.3976208246282127   F   F   F
  0.4194915254237301  0.6440677966101660  0.4162352201503552   F   F   F
  0.3220338983050866  0.4237288135593218  0.4348496156724977   F   F   F
  0.4745762711864430  0.2033898305084776  0.4534640111946402   F   F   F
  0.3766448745803951  0.9887402488576152  0.4639576166500565   T   T   T
  0.2776370898007097  0.7705875028192605  0.4918509552678864   T   T   T
  0.4301139668365802  0.5472942545979490  0.5104978629754764   T   T   T
  0.3355023766261828  0.3284943813012873  0.5341771055823558   T   T   T
  0.4876930979463533  0.1042330202001115  0.5404018382279803   T   T   T
  0.3885949432609929  0.8842485891282473  0.5672324338243385   T   T   T
  0.2866845066643640  0.6705096897516809  0.5833196975547911   T   T   T
  0.4414713504690960  0.4633471870622922  0.6107717546470633   T   T   T
  0.3440062910902925  0.2550863437121731  0.6295515030564376   T   T   T
  0.2493391525133585  0.0334127358257045  0.6288948143956131   T   T   T
  0.5169491525423737  0.8644067796610173  0.3976208246282127   F   F   F
  0.6694915254237301  0.6440677966101660  0.4162352201503552   F   F   F
  0.5720338983050866  0.4237288135593218  0.4348496156724977   F   F   F
  0.7245762711864430  0.2033898305084776  0.4534640111946402   F   F   F
  0.6263165831903432  0.9888323544636476  0.4641923352550091   T   T   T
  0.5283537325771296  0.7694238892235810  0.4935076364886699   T   T   T
  0.6799024481927762  0.5495121726523838  0.5099597948322002   T   T   T
  0.5814812648178196  0.3308997395221124  0.5289534741138384   T   T   T
  0.7366334973626082  0.1056274348526468  0.5409287866012710   T   T   T
  0.6388273861130372  0.8826139314435189  0.5686182068121988   T   T   T
  0.5406268218605157  0.6734966267974218  0.5909862204924716   T   T   T
  0.6984851827695991  0.4565247840723565  0.6034868049200995   T   T   T
  0.5973870150296382  0.2487319971099424  0.6220578381130694   T   T   T
  0.4952340993050908  0.0354605433274275  0.6298057440541964   T   T   T
  0.7669491525423737  0.8644067796610173  0.3976208246282127   F   F   F
  0.9194915254237301  0.6440677966101660  0.4162352201503552   F   F   F
  0.8220338983050866  0.4237288135593218  0.4348496156724977   F   F   F
  0.9745762711864430  0.2033898305084776  0.4534640111946402   F   F   F
  0.8762568934858942  0.9889757708146397  0.4645679641015051   T   T   T
  0.7779211001516767  0.7721828159221441  0.4925134734974614   T   T   T
  0.9309876851716271  0.5468751553166755  0.5085230887369347   T   T   T
  0.8328437288731582  0.3285308677751856  0.5284966965668721   T   T   T
  0.9867658083502512  0.1049971156362944  0.5410142057192145   T   T   T
  0.8894583315815232  0.8842602228121572  0.5697808547918962   T   T   T
  0.7922995398981458  0.6700408069716779  0.5850584832134901   T   T   T
  0.9424369795107317  0.4594788950452513  0.6019888857376677   T   T   T
  0.8414771962297986  0.2483857991478683  0.6264934704978374   T   T   T
  0.7411536382916049  0.0309834831655637  0.6304044256789276   T   T   T
  0.4961902245757954  0.5953766789835768  0.6529811628488443   T   T   T
  0.4960305782623266  0.6187991590164905  0.6946489105034148   T   T   T
  0.9752706788533374  0.1924967671704121  0.6777607708661971   T   T   T
  0.9726270813929744  0.1982844514450584  0.7207532798221877   T   T   T
  0.3576906374646704  0.2314420111545765  0.7005517221219367   T   T   T
  0.4111746452464290  0.2903488549034889  0.7115652171151001   T   T   T
 
  0.00000000E+00  0.00000000E+00  0.00000000E+00
  0.00000000E+00  0.00000000E+00  0.00000000E+00
  0.00000000E+00  0.00000000E+00  0.00000000E+00
  0.00000000E+00  0.00000000E+00  0.00000000E+00
  0.00000000E+00  0.00000000E+00  0.00000000E+00
  0.00000000E+00  0.00000000E+00  0.00000000E+00
  0.00000000E+00  0.00000000E+00  0.00000000E+00
  0.00000000E+00  0.00000000E+00  0.00000000E+00
  0.00000000E+00  0.00000000E+00  0.00000000E+00
  0.00000000E+00  0.00000000E+00  0.00000000E+00
  0.00000000E+00  0.00000000E+00  0.00000000E+00
  0.00000000E+00  0.00000000E+00  0.00000000E+00
  0.00000000E+00  0.00000000E+00  0.00000000E+00
  0.00000000E+00  0.00000000E+00  0.00000000E+00
  0.00000000E+00  0.00000000E+00  0.00000000E+00
  0.00000000E+00  0.00000000E+00  0.00000000E+00
  0.00000000E+00  0.00000000E+00  0.00000000E+00
  0.00000000E+00  0.00000000E+00  0.00000000E+00
  0.00000000E+00  0.00000000E+00  0.00000000E+00
  0.00000000E+00  0.00000000E+00  0.00000000E+00
  0.00000000E+00  0.00000000E+00  0.00000000E+00
  0.00000000E+00  0.00000000E+00  0.00000000E+00
  0.00000000E+00  0.00000000E+00  0.00000000E+00
  0.00000000E+00  0.00000000E+00  0.00000000E+00
  0.00000000E+00  0.00000000E+00  0.00000000E+00
  0.00000000E+00  0.00000000E+00  0.00000000E+00
  0.00000000E+00  0.00000000E+00  0.00000000E+00
  0.00000000E+00  0.00000000E+00  0.00000000E+00
  0.00000000E+00  0.00000000E+00  0.00000000E+00
  0.00000000E+00  0.00000000E+00  0.00000000E+00
  0.00000000E+00  0.00000000E+00  0.00000000E+00
  0.00000000E+00  0.00000000E+00  0.00000000E+00
  0.00000000E+00  0.00000000E+00  0.00000000E+00
  0.00000000E+00  0.00000000E+00  0.00000000E+00
  0.00000000E+00  0.00000000E+00  0.00000000E+00
  0.00000000E+00  0.00000000E+00  0.00000000E+00
  0.00000000E+00  0.00000000E+00  0.00000000E+00
  0.00000000E+00  0.00000000E+00  0.00000000E+00
  0.00000000E+00  0.00000000E+00  0.00000000E+00
  0.00000000E+00  0.00000000E+00  0.00000000E+00
  0.00000000E+00  0.00000000E+00  0.00000000E+00
  0.00000000E+00  0.00000000E+00  0.00000000E+00
  0.00000000E+00  0.00000000E+00  0.00000000E+00
  0.00000000E+00  0.00000000E+00  0.00000000E+00
  0.00000000E+00  0.00000000E+00  0.00000000E+00
  0.00000000E+00  0.00000000E+00  0.00000000E+00
  0.00000000E+00  0.00000000E+00  0.00000000E+00
  0.00000000E+00  0.00000000E+00  0.00000000E+00
  0.00000000E+00  0.00000000E+00  0.00000000E+00
  0.00000000E+00  0.00000000E+00  0.00000000E+00
  0.00000000E+00  0.00000000E+00  0.00000000E+00
  0.00000000E+00  0.00000000E+00  0.00000000E+00
  0.00000000E+00  0.00000000E+00  0.00000000E+00
  0.00000000E+00  0.00000000E+00  0.00000000E+00
  0.00000000E+00  0.00000000E+00  0.00000000E+00
  0.00000000E+00  0.00000000E+00  0.00000000E+00
  0.00000000E+00  0.00000000E+00  0.00000000E+00
  0.00000000E+00  0.00000000E+00  0.00000000E+00
  0.00000000E+00  0.00000000E+00  0.00000000E+00
  0.00000000E+00  0.00000000E+00  0.00000000E+00
  0.00000000E+00  0.00000000E+00  0.00000000E+00
  0.00000000E+00  0.00000000E+00  0.00000000E+00
