Pt  C  O  C  O  H                       
    1.000000000000000     
    11.2213408561008308    0.0000000000000000    0.0000000000000000
     1.4026676070126025   10.7740943252779040    0.0000000000000000
     0.0000000000000000    0.0000000000000000   27.7475611781839042
   Pt   C    O    C    O    H 
    56     1     1     1     2     1
Selective dynamics
Direct
  0.0169491525423737  0.8644067796610173  0.3976208246282127   F   F   F
  0.1694915254237301  0.6440677966101660  0.4162352201503552   F   F   F
  0.0720338983050866  0.4237288135593218  0.4348496156724977   F   F   F
  0.2245762711864430  0.2033898305084776  0.4534640111946402   F   F   F
  0.1266372728149429  0.9885241569548704  0.4645950116544663   T   T   T
  0.0265792857882034  0.7712710371791993  0.4924453810916108   T   T   T
  0.1802920926686474  0.5500811503891136  0.5110498907504629   T   T   T
  0.0822004974455502  0.3288117905436066  0.5287582736084837   T   T   T
  0.2350641406921010  0.1075196365298327  0.5411551836589759   T   T   T
  0.1339590576108330  0.8853878290217549  0.5670399120189198   T   T   T
  0.0363715581704632  0.6665039546266107  0.5851226870366526   T   T   T
  0.1880402786252252  0.4544469345429109  0.6042423093665369   T   T   T
  0.0937135460478004  0.2455180277343332  0.6259330632193411   T   T   T
  0.9932252577399882  0.0291635923602572  0.6311250208932819   T   T   T
  0.2669491525423737  0.8644067796610173  0.3976208246282127   F   F   F
  0.4194915254237301  0.6440677966101660  0.4162352201503552   F   F   F
  0.3220338983050866  0.4237288135593218  0.4348496156724977   F   F   F
  0.4745762711864430  0.2033898305084776  0.4534640111946402   F   F   F
  0.3761131280673428  0.9884131562884032  0.4643783735671706   T   T   T
  0.2768704294740066  0.7693455040620770  0.4927889793570613   T   T   T
  0.4294703900859197  0.5513349700042331  0.5114614722167430   T   T   T
  0.3330993850049495  0.3333460044794334  0.5284115009219025   T   T   T
  0.4857473475307802  0.1057127135465951  0.5406368920129796   T   T   T
  0.3879457290304973  0.8828388001714117  0.5663284256987028   T   T   T
  0.2830015645858691  0.6738045463407774  0.5900713496425473   T   T   T
  0.4372103926423608  0.4559822394128784  0.6078903443470607   T   T   T
  0.3406424335636783  0.2433162702074352  0.6206708122636599   T   T   T
  0.2485284782578553  0.0240158667977998  0.6300157988874960   T   T   T
  0.5169491525423737  0.8644067796610173  0.3976208246282127   F   F   F
  0.6694915254237301  0.6440677966101660  0.4162352201503552   F   F   F
  0.5720338983050866  0.4237288135593218  0.4348496156724977   F   F   F
  0.7245762711864430  0.2033898305084776  0.4534640111946402   F   F   F
  0.6258832229127785  0.9881257273190925  0.4645837118308200   T   T   T
  0.5272836214785760  0.7693567206012920  0.4927781119937332   T   T   T
  0.6796976796979999  0.5483538818479194  0.5102477704889290   T   T   T
  0.5814644979518154  0.3327446783257402  0.5282583644494011   T   T   T
  0.7353682826775754  0.1050877966505470  0.5409202720376808   T   T   T
  0.6376855483481350  0.8806956643476215  0.5677797889214768   T   T   T
  0.5391437138934043  0.6710560982576746  0.5888617863166559   T   T   T
  0.6912344986341504  0.4569492829287912  0.6090160943206216   T   T   T
  0.5910478398238619  0.2414551600935747  0.6203403993133080   T   T   T
  0.4924159903339424  0.0282039683981196  0.6304352574444867   T   T   T
  0.7669491525423737  0.8644067796610173  0.3976208246282127   F   F   F
  0.9194915254237301  0.6440677966101660  0.4162352201503552   F   F   F
  0.8220338983050866  0.4237288135593218  0.4348496156724977   F   F   F
  0.9745762711864430  0.2033898305084776  0.4534640111946402   F   F   F
  0.8759849074832325  0.9887882591899527  0.4643796056724024   T   T   T
  0.7772676025764877  0.7706157999823294  0.4921897151536355   T   T   T
  0.9300782585598466  0.5465000127585421  0.5087566708599878   T   T   T
  0.8307131406357340  0.3298336602999012  0.5301173099437660   T   T   T
  0.9842978323258499  0.1053865155603096  0.5408336230883033   T   T   T
  0.8872035200062734  0.8827211255728135  0.5691933599778625   T   T   T
  0.7910011299852123  0.6680144759948896  0.5851152993381805   T   T   T
  0.9390472969425636  0.4568065394866297  0.6032520794907454   T   T   T
  0.8373977317049925  0.2459377483211050  0.6264779295016074   T   T   T
  0.7385328001870654  0.0271541625567066  0.6302339774782332   T   T   T
  0.5524235646220192  0.5549019832855823  0.6493835992585706   T   T   T
  0.5448502784991677  0.5807760936229414  0.6914413598669507   T   T   T
  0.9739201245979039  0.1906264808335565  0.6766534821980688   T   T   T
  0.9729903224729054  0.1974064296205219  0.7196414640989512   T   T   T
  0.2712272662730162  0.7319006135919589  0.6583466796296218   T   T   T
  0.3487192011873965  0.7040809678234214  0.6738279923479441   T   T   T
 
  0.00000000E+00  0.00000000E+00  0.00000000E+00
  0.00000000E+00  0.00000000E+00  0.00000000E+00
  0.00000000E+00  0.00000000E+00  0.00000000E+00
  0.00000000E+00  0.00000000E+00  0.00000000E+00
  0.00000000E+00  0.00000000E+00  0.00000000E+00
  0.00000000E+00  0.00000000E+00  0.00000000E+00
  0.00000000E+00  0.00000000E+00  0.00000000E+00
  0.00000000E+00  0.00000000E+00  0.00000000E+00
  0.00000000E+00  0.00000000E+00  0.00000000E+00
  0.00000000E+00  0.00000000E+00  0.00000000E+00
  0.00000000E+00  0.00000000E+00  0.00000000E+00
  0.00000000E+00  0.00000000E+00  0.00000000E+00
  0.00000000E+00  0.00000000E+00  0.00000000E+00
  0.00000000E+00  0.00000000E+00  0.00000000E+00
  0.00000000E+00  0.00000000E+00  0.00000000E+00
  0.00000000E+00  0.00000000E+00  0.00000000E+00
  0.00000000E+00  0.00000000E+00  0.00000000E+00
  0.00000000E+00  0.00000000E+00  0.00000000E+00
  0.00000000E+00  0.00000000E+00  0.00000000E+00
  0.00000000E+00  0.00000000E+00  0.00000000E+00
  0.00000000E+00  0.00000000E+00  0.00000000E+00
  0.00000000E+00  0.00000000E+00  0.00000000E+00
  0.00000000E+00  0.00000000E+00  0.00000000E+00
  0.00000000E+00  0.00000000E+00  0.00000000E+00
  0.00000000E+00  0.00000000E+00  0.00000000E+00
  0.00000000E+00  0.00000000E+00  0.00000000E+00
  0.00000000E+00  0.00000000E+00  0.00000000E+00
  0.00000000E+00  0.00000000E+00  0.00000000E+00
  0.00000000E+00  0.00000000E+00  0.00000000E+00
  0.00000000E+00  0.00000000E+00  0.00000000E+00
  0.00000000E+00  0.00000000E+00  0.00000000E+00
  0.00000000E+00  0.00000000E+00  0.00000000E+00
  0.00000000E+00  0.00000000E+00  0.00000000E+00
  0.00000000E+00  0.00000000E+00  0.00000000E+00
  0.00000000E+00  0.00000000E+00  0.00000000E+00
  0.00000000E+00  0.00000000E+00  0.00000000E+00
  0.00000000E+00  0.00000000E+00  0.00000000E+00
  0.00000000E+00  0.00000000E+00  0.00000000E+00
  0.00000000E+00  0.00000000E+00  0.00000000E+00
  0.00000000E+00  0.00000000E+00  0.00000000E+00
  0.00000000E+00  0.00000000E+00  0.00000000E+00
  0.00000000E+00  0.00000000E+00  0.00000000E+00
  0.00000000E+00  0.00000000E+00  0.00000000E+00
  0.00000000E+00  0.00000000E+00  0.00000000E+00
  0.00000000E+00  0.00000000E+00  0.00000000E+00
  0.00000000E+00  0.00000000E+00  0.00000000E+00
  0.00000000E+00  0.00000000E+00  0.00000000E+00
  0.00000000E+00  0.00000000E+00  0.00000000E+00
  0.00000000E+00  0.00000000E+00  0.00000000E+00
  0.00000000E+00  0.00000000E+00  0.00000000E+00
  0.00000000E+00  0.00000000E+00  0.00000000E+00
  0.00000000E+00  0.00000000E+00  0.00000000E+00
  0.00000000E+00  0.00000000E+00  0.00000000E+00
  0.00000000E+00  0.00000000E+00  0.00000000E+00
  0.00000000E+00  0.00000000E+00  0.00000000E+00
  0.00000000E+00  0.00000000E+00  0.00000000E+00
  0.00000000E+00  0.00000000E+00  0.00000000E+00
  0.00000000E+00  0.00000000E+00  0.00000000E+00
  0.00000000E+00  0.00000000E+00  0.00000000E+00
  0.00000000E+00  0.00000000E+00  0.00000000E+00
  0.00000000E+00  0.00000000E+00  0.00000000E+00
  0.00000000E+00  0.00000000E+00  0.00000000E+00
