Pt  C  O  C  O  H                       
    1.000000000000000     
    11.2213408561008308    0.0000000000000000    0.0000000000000000
     1.4026676070126025   10.7740943252779040    0.0000000000000000
     0.0000000000000000    0.0000000000000000   27.7475611781839042
   Pt   C    O    C    O    H 
    56     1     1     1     2     1
Selective dynamics
Direct
  0.0169491525423737  0.8644067796610173  0.3976208246282127   F   F   F
  0.1694915254237301  0.6440677966101660  0.4162352201503552   F   F   F
  0.0720338983050866  0.4237288135593218  0.4348496156724977   F   F   F
  0.2245762711864430  0.2033898305084776  0.4534640111946402   F   F   F
  0.1252553246178569  0.9883117021073610  0.4659280477813151   T   T   T
  0.0281834114891568  0.7706840527289175  0.4928905213868069   T   T   T
  0.1811489759165040  0.5469845034796190  0.5088762905817328   T   T   T
  0.0847292535805648  0.3266375535019793  0.5264522862098620   T   T   T
  0.2391823639945099  0.1004714270118100  0.5409330595887849   T   T   T
  0.1389787587509149  0.8777745420759221  0.5700241675876276   T   T   T
  0.0410483989951834  0.6606867406434997  0.5855121571504105   T   T   T
  0.1911419661647882  0.4464495897919816  0.6028345283610285   T   T   T
  0.0962539523167985  0.2322293850836095  0.6180795413389493   T   T   T
  0.0002113629841380  0.0180733522893207  0.6364492614487756   T   T   T
  0.2669491525423737  0.8644067796610173  0.3976208246282127   F   F   F
  0.4194915254237301  0.6440677966101660  0.4162352201503552   F   F   F
  0.3220338983050866  0.4237288135593218  0.4348496156724977   F   F   F
  0.4745762711864430  0.2033898305084776  0.4534640111946402   F   F   F
  0.3774713368259975  0.9863919073596960  0.4656604040202710   T   T   T
  0.2772371687599581  0.7699596260079058  0.4926011655607760   T   T   T
  0.4320433679462862  0.5483263233010391  0.5104841206535808   T   T   T
  0.3366518210961079  0.3300254514624660  0.5282451898804078   T   T   T
  0.4875123818056660  0.0974152277637427  0.5423415423125963   T   T   T
  0.3907372032335047  0.8760307784522854  0.5698842529187825   T   T   T
  0.2873043898665825  0.6616539690010702  0.5843845173917259   T   T   T
  0.4411206343150608  0.4501771190517861  0.6094357098212471   T   T   T
  0.3473889322754463  0.2354744157564551  0.6194044987998215   T   T   T
  0.2519864738685821  0.0214964467417592  0.6321499406682849   T   T   T
  0.5169491525423737  0.8644067796610173  0.3976208246282127   F   F   F
  0.6694915254237301  0.6440677966101660  0.4162352201503552   F   F   F
  0.5720338983050866  0.4237288135593218  0.4348496156724977   F   F   F
  0.7245762711864430  0.2033898305084776  0.4534640111946402   F   F   F
  0.6271152434669085  0.9868002589165427  0.4658861737494114   T   T   T
  0.5276512050355981  0.7671873758779798  0.4941639965863109   T   T   T
  0.6801163906357967  0.5502092998628392  0.5104386185157066   T   T   T
  0.5835590448698106  0.3286367925023411  0.5270507728677295   T   T   T
  0.7380703194962845  0.0963355215480572  0.5423468748273489   T   T   T
  0.6391104298046343  0.8735962016439383  0.5692405795763146   T   T   T
  0.5423400985769031  0.6626277709656879  0.5935247518077110   T   T   T
  0.7009923322271204  0.4428916809435124  0.6023809783190311   T   T   T
  0.5957034973175970  0.2326902452196247  0.6171827681149101   T   T   T
  0.4946990079864794  0.0170183671680984  0.6371191787595816   T   T   T
  0.7669491525423737  0.8644067796610173  0.3976208246282127   F   F   F
  0.9194915254237301  0.6440677966101660  0.4162352201503552   F   F   F
  0.8220338983050866  0.4237288135593218  0.4348496156724977   F   F   F
  0.9745762711864430  0.2033898305084776  0.4534640111946402   F   F   F
  0.8770151654412527  0.9884840128782993  0.4660995529457396   T   T   T
  0.7792267884060278  0.7703966243906294  0.4930225263391138   T   T   T
  0.9303379838754051  0.5473880256263219  0.5090973792953668   T   T   T
  0.8336364326547785  0.3255442803072835  0.5261747846974696   T   T   T
  0.9884163258342996  0.0977994811035244  0.5447101550200235   T   T   T
  0.8883601634150230  0.8777494963022489  0.5712567174240313   T   T   T
  0.7937542302043755  0.6596809949610053  0.5865450110500742   T   T   T
  0.9449542268536937  0.4464985372562740  0.6028522803810241   T   T   T
  0.8456926144827046  0.2280064599172084  0.6177400523281423   T   T   T
  0.7412308324812655  0.0144698265208375  0.6368265046455601   T   T   T
  0.4953717495934167  0.5782863454713630  0.6539595158718993   T   T   T
  0.4950060193863396  0.5977835047945301  0.6958989950796527   T   T   T
  0.6247995621789879  0.9684261796563985  0.6862411471519440   T   T   T
  0.6289313678636930  0.9263193389401259  0.7255867868165992   T   T   T
  0.0044897598378108  0.9555134439330016  0.7026700114341192   T   T   T
  0.0867343545042889  0.9497672750158154  0.7150684859523964   T   T   T
 
  0.00000000E+00  0.00000000E+00  0.00000000E+00
  0.00000000E+00  0.00000000E+00  0.00000000E+00
  0.00000000E+00  0.00000000E+00  0.00000000E+00
  0.00000000E+00  0.00000000E+00  0.00000000E+00
  0.00000000E+00  0.00000000E+00  0.00000000E+00
  0.00000000E+00  0.00000000E+00  0.00000000E+00
  0.00000000E+00  0.00000000E+00  0.00000000E+00
  0.00000000E+00  0.00000000E+00  0.00000000E+00
  0.00000000E+00  0.00000000E+00  0.00000000E+00
  0.00000000E+00  0.00000000E+00  0.00000000E+00
  0.00000000E+00  0.00000000E+00  0.00000000E+00
  0.00000000E+00  0.00000000E+00  0.00000000E+00
  0.00000000E+00  0.00000000E+00  0.00000000E+00
  0.00000000E+00  0.00000000E+00  0.00000000E+00
  0.00000000E+00  0.00000000E+00  0.00000000E+00
  0.00000000E+00  0.00000000E+00  0.00000000E+00
  0.00000000E+00  0.00000000E+00  0.00000000E+00
  0.00000000E+00  0.00000000E+00  0.00000000E+00
  0.00000000E+00  0.00000000E+00  0.00000000E+00
  0.00000000E+00  0.00000000E+00  0.00000000E+00
  0.00000000E+00  0.00000000E+00  0.00000000E+00
  0.00000000E+00  0.00000000E+00  0.00000000E+00
  0.00000000E+00  0.00000000E+00  0.00000000E+00
  0.00000000E+00  0.00000000E+00  0.00000000E+00
  0.00000000E+00  0.00000000E+00  0.00000000E+00
  0.00000000E+00  0.00000000E+00  0.00000000E+00
  0.00000000E+00  0.00000000E+00  0.00000000E+00
  0.00000000E+00  0.00000000E+00  0.00000000E+00
  0.00000000E+00  0.00000000E+00  0.00000000E+00
  0.00000000E+00  0.00000000E+00  0.00000000E+00
  0.00000000E+00  0.00000000E+00  0.00000000E+00
  0.00000000E+00  0.00000000E+00  0.00000000E+00
  0.00000000E+00  0.00000000E+00  0.00000000E+00
  0.00000000E+00  0.00000000E+00  0.00000000E+00
  0.00000000E+00  0.00000000E+00  0.00000000E+00
  0.00000000E+00  0.00000000E+00  0.00000000E+00
  0.00000000E+00  0.00000000E+00  0.00000000E+00
  0.00000000E+00  0.00000000E+00  0.00000000E+00
  0.00000000E+00  0.00000000E+00  0.00000000E+00
  0.00000000E+00  0.00000000E+00  0.00000000E+00
  0.00000000E+00  0.00000000E+00  0.00000000E+00
  0.00000000E+00  0.00000000E+00  0.00000000E+00
  0.00000000E+00  0.00000000E+00  0.00000000E+00
  0.00000000E+00  0.00000000E+00  0.00000000E+00
  0.00000000E+00  0.00000000E+00  0.00000000E+00
  0.00000000E+00  0.00000000E+00  0.00000000E+00
  0.00000000E+00  0.00000000E+00  0.00000000E+00
  0.00000000E+00  0.00000000E+00  0.00000000E+00
  0.00000000E+00  0.00000000E+00  0.00000000E+00
  0.00000000E+00  0.00000000E+00  0.00000000E+00
  0.00000000E+00  0.00000000E+00  0.00000000E+00
  0.00000000E+00  0.00000000E+00  0.00000000E+00
  0.00000000E+00  0.00000000E+00  0.00000000E+00
  0.00000000E+00  0.00000000E+00  0.00000000E+00
  0.00000000E+00  0.00000000E+00  0.00000000E+00
  0.00000000E+00  0.00000000E+00  0.00000000E+00
  0.00000000E+00  0.00000000E+00  0.00000000E+00
  0.00000000E+00  0.00000000E+00  0.00000000E+00
  0.00000000E+00  0.00000000E+00  0.00000000E+00
  0.00000000E+00  0.00000000E+00  0.00000000E+00
  0.00000000E+00  0.00000000E+00  0.00000000E+00
  0.00000000E+00  0.00000000E+00  0.00000000E+00
