Pt  C  O  C  O  H                       
    1.000000000000000     
    11.2213408561008308    0.0000000000000000    0.0000000000000000
     1.4026676070126025   10.7740943252779040    0.0000000000000000
     0.0000000000000000    0.0000000000000000   27.7475611781839042
   Pt   C    O    C    O    H 
    56     1     1     1     2     1
Selective dynamics
Direct
  0.0169491525423737  0.8644067796610173  0.3976208246282127   F   F   F
  0.1694915254237301  0.6440677966101660  0.4162352201503552   F   F   F
  0.0720338983050866  0.4237288135593218  0.4348496156724977   F   F   F
  0.2245762711864430  0.2033898305084776  0.4534640111946402   F   F   F
  0.1260235223955358  0.9892919670452236  0.4645940838143320   T   T   T
  0.0275587023346496  0.7717598242885969  0.4921380649054916   T   T   T
  0.1796017323583787  0.5495614636391571  0.5104199761336707   T   T   T
  0.0846940632968350  0.3310588143950320  0.5279680224161570   T   T   T
  0.2378097635289253  0.1048861602016505  0.5404608291299173   T   T   T
  0.1357916127275847  0.8833691030811494  0.5685151653256738   T   T   T
  0.0374945495398539  0.6670380695131943  0.5840756768286671   T   T   T
  0.1901792561071021  0.4604659887224681  0.6081500639152617   T   T   T
  0.0984580823335068  0.2441259827719165  0.6190340351045186   T   T   T
  0.0013738244862272  0.0294319283808079  0.6329555620785711   T   T   T
  0.2669491525423737  0.8644067796610173  0.3976208246282127   F   F   F
  0.4194915254237301  0.6440677966101660  0.4162352201503552   F   F   F
  0.3220338983050866  0.4237288135593218  0.4348496156724977   F   F   F
  0.4745762711864430  0.2033898305084776  0.4534640111946402   F   F   F
  0.3769515537198544  0.9882908124398795  0.4645601433713341   T   T   T
  0.2784031557938618  0.7723501267600189  0.4916072561420803   T   T   T
  0.4324093459125479  0.5507443105683342  0.5099629466490604   T   T   T
  0.3343310876645739  0.3349889946219758  0.5292311399803662   T   T   T
  0.4874188008292469  0.1026646448225073  0.5405114997207322   T   T   T
  0.3897669118972242  0.8822747321529228  0.5681501849304642   T   T   T
  0.2867837908246256  0.6702867566378364  0.5825678970464414   T   T   T
  0.4420443306821572  0.4602045747210374  0.6088480296943943   T   T   T
  0.3447063363531902  0.2450855758670797  0.6198394422964665   T   T   T
  0.2472487196243462  0.0286875876309742  0.6307315868013571   T   T   T
  0.5169491525423737  0.8644067796610173  0.3976208246282127   F   F   F
  0.6694915254237301  0.6440677966101660  0.4162352201503552   F   F   F
  0.5720338983050866  0.4237288135593218  0.4348496156724977   F   F   F
  0.7245762711864430  0.2033898305084776  0.4534640111946402   F   F   F
  0.6266929066875581  0.9875819404222254  0.4645519308206137   T   T   T
  0.5280216147427506  0.7700504905672326  0.4939155765372336   T   T   T
  0.6802159733716142  0.5496830505545202  0.5103085604049199   T   T   T
  0.5816592177278211  0.3299296054065657  0.5279238581480241   T   T   T
  0.7365147148128903  0.1019360748389418  0.5413531624660841   T   T   T
  0.6406655980620455  0.8795577684312573  0.5705668652897724   T   T   T
  0.5417634248736116  0.6714714127081420  0.5926565449233215   T   T   T
  0.6972618225143283  0.4499419859179747  0.6034065717140374   T   T   T
  0.5888154589418415  0.2444827299264923  0.6202488959009641   T   T   T
  0.4934579741540437  0.0299673852214195  0.6311166847241527   T   T   T
  0.7669491525423737  0.8644067796610173  0.3976208246282127   F   F   F
  0.9194915254237301  0.6440677966101660  0.4162352201503552   F   F   F
  0.8220338983050866  0.4237288135593218  0.4348496156724977   F   F   F
  0.9745762711864430  0.2033898305084776  0.4534640111946402   F   F   F
  0.8763055933348582  0.9878053824390892  0.4651980103611204   T   T   T
  0.7772219585857084  0.7714391381114643  0.4929131682186372   T   T   T
  0.9283027254734326  0.5473140991476174  0.5091420926232215   T   T   T
  0.8327662347777025  0.3260174794252476  0.5286424824681750   T   T   T
  0.9866593257861528  0.1036102507146258  0.5413266763060409   T   T   T
  0.8875673269855139  0.8817643164742626  0.5695372151196586   T   T   T
  0.7919899130232303  0.6653509621519491  0.5867460892562142   T   T   T
  0.9400636520679047  0.4522460082659487  0.6032388737414173   T   T   T
  0.8441913214550006  0.2441932110627801  0.6267090139852419   T   T   T
  0.7400052205329642  0.0296561241235346  0.6332462899388580   T   T   T
  0.4926628147527692  0.5910809183494146  0.6531781515068743   T   T   T
  0.4880966979488845  0.6118716539450784  0.6951002012164440   T   T   T
  0.8616830284490532  0.1077806680849897  0.6792993748471039   T   T   T
  0.8622665816883095  0.1041270137155536  0.7224535843537596   T   T   T
  0.1785890008154026  0.4924530212339118  0.6783710822553903   T   T   T
  0.2609380656704913  0.4950722054877796  0.6897792048465893   T   T   T
 
  0.00000000E+00  0.00000000E+00  0.00000000E+00
  0.00000000E+00  0.00000000E+00  0.00000000E+00
  0.00000000E+00  0.00000000E+00  0.00000000E+00
  0.00000000E+00  0.00000000E+00  0.00000000E+00
  0.00000000E+00  0.00000000E+00  0.00000000E+00
  0.00000000E+00  0.00000000E+00  0.00000000E+00
  0.00000000E+00  0.00000000E+00  0.00000000E+00
  0.00000000E+00  0.00000000E+00  0.00000000E+00
  0.00000000E+00  0.00000000E+00  0.00000000E+00
  0.00000000E+00  0.00000000E+00  0.00000000E+00
  0.00000000E+00  0.00000000E+00  0.00000000E+00
  0.00000000E+00  0.00000000E+00  0.00000000E+00
  0.00000000E+00  0.00000000E+00  0.00000000E+00
  0.00000000E+00  0.00000000E+00  0.00000000E+00
  0.00000000E+00  0.00000000E+00  0.00000000E+00
  0.00000000E+00  0.00000000E+00  0.00000000E+00
  0.00000000E+00  0.00000000E+00  0.00000000E+00
  0.00000000E+00  0.00000000E+00  0.00000000E+00
  0.00000000E+00  0.00000000E+00  0.00000000E+00
  0.00000000E+00  0.00000000E+00  0.00000000E+00
  0.00000000E+00  0.00000000E+00  0.00000000E+00
  0.00000000E+00  0.00000000E+00  0.00000000E+00
  0.00000000E+00  0.00000000E+00  0.00000000E+00
  0.00000000E+00  0.00000000E+00  0.00000000E+00
  0.00000000E+00  0.00000000E+00  0.00000000E+00
  0.00000000E+00  0.00000000E+00  0.00000000E+00
  0.00000000E+00  0.00000000E+00  0.00000000E+00
  0.00000000E+00  0.00000000E+00  0.00000000E+00
  0.00000000E+00  0.00000000E+00  0.00000000E+00
  0.00000000E+00  0.00000000E+00  0.00000000E+00
  0.00000000E+00  0.00000000E+00  0.00000000E+00
  0.00000000E+00  0.00000000E+00  0.00000000E+00
  0.00000000E+00  0.00000000E+00  0.00000000E+00
  0.00000000E+00  0.00000000E+00  0.00000000E+00
  0.00000000E+00  0.00000000E+00  0.00000000E+00
  0.00000000E+00  0.00000000E+00  0.00000000E+00
  0.00000000E+00  0.00000000E+00  0.00000000E+00
  0.00000000E+00  0.00000000E+00  0.00000000E+00
  0.00000000E+00  0.00000000E+00  0.00000000E+00
  0.00000000E+00  0.00000000E+00  0.00000000E+00
  0.00000000E+00  0.00000000E+00  0.00000000E+00
  0.00000000E+00  0.00000000E+00  0.00000000E+00
  0.00000000E+00  0.00000000E+00  0.00000000E+00
  0.00000000E+00  0.00000000E+00  0.00000000E+00
  0.00000000E+00  0.00000000E+00  0.00000000E+00
  0.00000000E+00  0.00000000E+00  0.00000000E+00
  0.00000000E+00  0.00000000E+00  0.00000000E+00
  0.00000000E+00  0.00000000E+00  0.00000000E+00
  0.00000000E+00  0.00000000E+00  0.00000000E+00
  0.00000000E+00  0.00000000E+00  0.00000000E+00
  0.00000000E+00  0.00000000E+00  0.00000000E+00
  0.00000000E+00  0.00000000E+00  0.00000000E+00
  0.00000000E+00  0.00000000E+00  0.00000000E+00
  0.00000000E+00  0.00000000E+00  0.00000000E+00
  0.00000000E+00  0.00000000E+00  0.00000000E+00
  0.00000000E+00  0.00000000E+00  0.00000000E+00
  0.00000000E+00  0.00000000E+00  0.00000000E+00
  0.00000000E+00  0.00000000E+00  0.00000000E+00
  0.00000000E+00  0.00000000E+00  0.00000000E+00
  0.00000000E+00  0.00000000E+00  0.00000000E+00
  0.00000000E+00  0.00000000E+00  0.00000000E+00
  0.00000000E+00  0.00000000E+00  0.00000000E+00
