Pt  C  O  C  O  H                       
    1.000000000000000     
    11.2213408561008308    0.0000000000000000    0.0000000000000000
     1.4026676070126025   10.7740943252779040    0.0000000000000000
     0.0000000000000000    0.0000000000000000   27.7475611781839042
   Pt   C    O    C    O    H 
    56     1     1     1     2     1
Selective dynamics
Direct
  0.0169491525423737  0.8644067796610173  0.3976208246282127   F   F   F
  0.1694915254237301  0.6440677966101660  0.4162352201503552   F   F   F
  0.0720338983050866  0.4237288135593218  0.4348496156724977   F   F   F
  0.2245762711864430  0.2033898305084776  0.4534640111946402   F   F   F
  0.1261832239778441  0.9884789987051986  0.4646435855699239   T   T   T
  0.0279752765597172  0.7703705481981094  0.4921667449955844   T   T   T
  0.1805783652501911  0.5479602910410171  0.5087868081922529   T   T   T
  0.0842091092787191  0.3294049426638474  0.5280590581367093   T   T   T
  0.2382967671095008  0.1028160445378380  0.5403559738936189   T   T   T
  0.1368146986753304  0.8811120644719478  0.5686851855764461   T   T   T
  0.0405084659870058  0.6648448813359215  0.5843728799477630   T   T   T
  0.1938360017661838  0.4543391904687597  0.6037516400550981   T   T   T
  0.1012234607283324  0.2408206568043350  0.6192260396883400   T   T   T
  0.0023268430364590  0.0257106955834501  0.6332438755741041   T   T   T
  0.2669491525423737  0.8644067796610173  0.3976208246282127   F   F   F
  0.4194915254237301  0.6440677966101660  0.4162352201503552   F   F   F
  0.3220338983050866  0.4237288135593218  0.4348496156724977   F   F   F
  0.4745762711864430  0.2033898305084776  0.4534640111946402   F   F   F
  0.3769983670641540  0.9872384587135240  0.4648675396046447   T   T   T
  0.2785939274481435  0.7705713093941697  0.4921358817374506   T   T   T
  0.4318168988486402  0.5496330728409311  0.5103102338823312   T   T   T
  0.3354692289497899  0.3325222471339512  0.5286019396929470   T   T   T
  0.4874201761244126  0.1019855503804969  0.5407086062672750   T   T   T
  0.3894848771853801  0.8795425526888925  0.5684539098655095   T   T   T
  0.2864892792425852  0.6670030899271826  0.5841180047212554   T   T   T
  0.4398500237506519  0.4578544273955185  0.6104180856204970   T   T   T
  0.3452615330943010  0.2425895691346984  0.6204984075959356   T   T   T
  0.2480242147193318  0.0260688866178311  0.6308083040646172   T   T   T
  0.5169491525423737  0.8644067796610173  0.3976208246282127   F   F   F
  0.6694915254237301  0.6440677966101660  0.4162352201503552   F   F   F
  0.5720338983050866  0.4237288135593218  0.4348496156724977   F   F   F
  0.7245762711864430  0.2033898305084776  0.4534640111946402   F   F   F
  0.6267676149800526  0.9870286633463693  0.4648117926055014   T   T   T
  0.5276687904877192  0.7684980573760223  0.4938421092325966   T   T   T
  0.6797089599956796  0.5491031347101624  0.5102626330939029   T   T   T
  0.5820812164937380  0.3299497585412274  0.5279619174523866   T   T   T
  0.7366366880933430  0.1016668652152031  0.5410274242222610   T   T   T
  0.6398559328003612  0.8767584880937599  0.5702625799022107   T   T   T
  0.5407115611565888  0.6680324335198681  0.5930424434618373   T   T   T
  0.6967223507589299  0.4470011908723927  0.6029910042589844   T   T   T
  0.5887233393527048  0.2416223238436995  0.6200052749348478   T   T   T
  0.4934673959888803  0.0265066069401863  0.6311188733692645   T   T   T
  0.7669491525423737  0.8644067796610173  0.3976208246282127   F   F   F
  0.9194915254237301  0.6440677966101660  0.4162352201503552   F   F   F
  0.8220338983050866  0.4237288135593218  0.4348496156724977   F   F   F
  0.9745762711864430  0.2033898305084776  0.4534640111946402   F   F   F
  0.8766391896503123  0.9877321867145611  0.4651466864371480   T   T   T
  0.7773620393016388  0.7700500135336372  0.4925993857773396   T   T   T
  0.9294564844322520  0.5459244985927794  0.5107116502639235   T   T   T
  0.8333276040815699  0.3278456382365450  0.5297564286431118   T   T   T
  0.9871762256324829  0.1027198047676672  0.5415734104618162   T   T   T
  0.8881592719012961  0.8801309211223270  0.5687844717078718   T   T   T
  0.7917348174498198  0.6636462243424301  0.5856308801048069   T   T   T
  0.9441086238342753  0.4528067842233804  0.6081520762996659   T   T   T
  0.8443062496743292  0.2394033127186816  0.6256277718569740   T   T   T
  0.7397902885841954  0.0260279342202727  0.6325509989638389   T   T   T
  0.4896150687000622  0.5906867276995241  0.6540620476192176   T   T   T
  0.4855284150155795  0.6132919700194039  0.6957358716755466   T   T   T
  0.8622627722747649  0.1032240498295393  0.6788529263091870   T   T   T
  0.8607047435848514  0.1015064079697073  0.7219661574551736   T   T   T
  0.9393805597026292  0.4938132905849423  0.6778083611932887   T   T   T
  0.0229555985865513  0.4979400284348256  0.6873587342189243   T   T   T
 
  0.00000000E+00  0.00000000E+00  0.00000000E+00
  0.00000000E+00  0.00000000E+00  0.00000000E+00
  0.00000000E+00  0.00000000E+00  0.00000000E+00
  0.00000000E+00  0.00000000E+00  0.00000000E+00
  0.00000000E+00  0.00000000E+00  0.00000000E+00
  0.00000000E+00  0.00000000E+00  0.00000000E+00
  0.00000000E+00  0.00000000E+00  0.00000000E+00
  0.00000000E+00  0.00000000E+00  0.00000000E+00
  0.00000000E+00  0.00000000E+00  0.00000000E+00
  0.00000000E+00  0.00000000E+00  0.00000000E+00
  0.00000000E+00  0.00000000E+00  0.00000000E+00
  0.00000000E+00  0.00000000E+00  0.00000000E+00
  0.00000000E+00  0.00000000E+00  0.00000000E+00
  0.00000000E+00  0.00000000E+00  0.00000000E+00
  0.00000000E+00  0.00000000E+00  0.00000000E+00
  0.00000000E+00  0.00000000E+00  0.00000000E+00
  0.00000000E+00  0.00000000E+00  0.00000000E+00
  0.00000000E+00  0.00000000E+00  0.00000000E+00
  0.00000000E+00  0.00000000E+00  0.00000000E+00
  0.00000000E+00  0.00000000E+00  0.00000000E+00
  0.00000000E+00  0.00000000E+00  0.00000000E+00
  0.00000000E+00  0.00000000E+00  0.00000000E+00
  0.00000000E+00  0.00000000E+00  0.00000000E+00
  0.00000000E+00  0.00000000E+00  0.00000000E+00
  0.00000000E+00  0.00000000E+00  0.00000000E+00
  0.00000000E+00  0.00000000E+00  0.00000000E+00
  0.00000000E+00  0.00000000E+00  0.00000000E+00
  0.00000000E+00  0.00000000E+00  0.00000000E+00
  0.00000000E+00  0.00000000E+00  0.00000000E+00
  0.00000000E+00  0.00000000E+00  0.00000000E+00
  0.00000000E+00  0.00000000E+00  0.00000000E+00
  0.00000000E+00  0.00000000E+00  0.00000000E+00
  0.00000000E+00  0.00000000E+00  0.00000000E+00
  0.00000000E+00  0.00000000E+00  0.00000000E+00
  0.00000000E+00  0.00000000E+00  0.00000000E+00
  0.00000000E+00  0.00000000E+00  0.00000000E+00
  0.00000000E+00  0.00000000E+00  0.00000000E+00
  0.00000000E+00  0.00000000E+00  0.00000000E+00
  0.00000000E+00  0.00000000E+00  0.00000000E+00
  0.00000000E+00  0.00000000E+00  0.00000000E+00
  0.00000000E+00  0.00000000E+00  0.00000000E+00
  0.00000000E+00  0.00000000E+00  0.00000000E+00
  0.00000000E+00  0.00000000E+00  0.00000000E+00
  0.00000000E+00  0.00000000E+00  0.00000000E+00
  0.00000000E+00  0.00000000E+00  0.00000000E+00
  0.00000000E+00  0.00000000E+00  0.00000000E+00
  0.00000000E+00  0.00000000E+00  0.00000000E+00
  0.00000000E+00  0.00000000E+00  0.00000000E+00
  0.00000000E+00  0.00000000E+00  0.00000000E+00
  0.00000000E+00  0.00000000E+00  0.00000000E+00
  0.00000000E+00  0.00000000E+00  0.00000000E+00
  0.00000000E+00  0.00000000E+00  0.00000000E+00
  0.00000000E+00  0.00000000E+00  0.00000000E+00
  0.00000000E+00  0.00000000E+00  0.00000000E+00
  0.00000000E+00  0.00000000E+00  0.00000000E+00
  0.00000000E+00  0.00000000E+00  0.00000000E+00
  0.00000000E+00  0.00000000E+00  0.00000000E+00
  0.00000000E+00  0.00000000E+00  0.00000000E+00
  0.00000000E+00  0.00000000E+00  0.00000000E+00
  0.00000000E+00  0.00000000E+00  0.00000000E+00
  0.00000000E+00  0.00000000E+00  0.00000000E+00
  0.00000000E+00  0.00000000E+00  0.00000000E+00
