Pt  C  O  C  O  H                       
    1.000000000000000     
    11.2213408561008308    0.0000000000000000    0.0000000000000000
     1.4026676070126025   10.7740943252779040    0.0000000000000000
     0.0000000000000000    0.0000000000000000   27.7475611781839042
   Pt   C    O    C    O    H 
    56     1     1     1     2     1
Selective dynamics
Direct
  0.0169491525423737  0.8644067796610173  0.3976208246282127   F   F   F
  0.1694915254237301  0.6440677966101660  0.4162352201503552   F   F   F
  0.0720338983050866  0.4237288135593218  0.4348496156724977   F   F   F
  0.2245762711864430  0.2033898305084776  0.4534640111946402   F   F   F
  0.1272407053562359  0.9878120587352899  0.4660868340700210   T   T   T
  0.0280051148239627  0.7691930520300635  0.4927040255776519   T   T   T
  0.1827124817629703  0.5532144150434187  0.5128720426637708   T   T   T
  0.0824744206930969  0.3285377904542848  0.5270173930052058   T   T   T
  0.2345672035196632  0.1019462670743607  0.5441741432529213   T   T   T
  0.1395237450610533  0.8755451221578424  0.5692284205166366   T   T   T
  0.0395868938378773  0.6619594327721381  0.5884469210192027   T   T   T
  0.1880192638957487  0.4471684704182267  0.6052278422461087   T   T   T
  0.0916031844851331  0.2360700814503973  0.6190368339187240   T   T   T
  0.9918048422730302  0.0214884956580892  0.6312618132260329   T   T   T
  0.2669491525423737  0.8644067796610173  0.3976208246282127   F   F   F
  0.4194915254237301  0.6440677966101660  0.4162352201503552   F   F   F
  0.3220338983050866  0.4237288135593218  0.4348496156724977   F   F   F
  0.4745762711864430  0.2033898305084776  0.4534640111946402   F   F   F
  0.3754142313776476  0.9899015568961531  0.4642580437292478   T   T   T
  0.2780173931487357  0.7713849426162449  0.4923851083565969   T   T   T
  0.4308950177062877  0.5503297142776924  0.5094575749338006   T   T   T
  0.3312195780098777  0.3310160897353968  0.5267738160837730   T   T   T
  0.4886276241035338  0.1060473803625039  0.5410589105262892   T   T   T
  0.3899343299284379  0.8853679046103474  0.5643274483652028   T   T   T
  0.2890778901011151  0.6582506318082086  0.5894911325301028   T   T   T
  0.4431163517180342  0.4431192857451434  0.6027123891891111   T   T   T
  0.3396161485613349  0.2332968544545658  0.6177501816603286   T   T   T
  0.2463394263799143  0.0177523905897043  0.6345453746621269   T   T   T
  0.5169491525423737  0.8644067796610173  0.3976208246282127   F   F   F
  0.6694915254237301  0.6440677966101660  0.4162352201503552   F   F   F
  0.5720338983050866  0.4237288135593218  0.4348496156724977   F   F   F
  0.7245762711864430  0.2033898305084776  0.4534640111946402   F   F   F
  0.6262644659068058  0.9875957381824063  0.4651869342680666   T   T   T
  0.5297886016827369  0.7700025243891345  0.4916501245070397   T   T   T
  0.6778288492685672  0.5497756134171164  0.5128024094469787   T   T   T
  0.5852611125499527  0.3285356528232735  0.5281989402259512   T   T   T
  0.7373372762128917  0.1017566661457557  0.5409754949558697   T   T   T
  0.6416731563466660  0.8764991179055500  0.5684749765598379   T   T   T
  0.5404408869761935  0.6637010661186850  0.5873608524874107   T   T   T
  0.6962155411685002  0.4520804231090240  0.6100506802179285   T   T   T
  0.5964479686458398  0.2370534186108239  0.6271133862315511   T   T   T
  0.5023084045528461  0.0230340420069155  0.6301160479731786   T   T   T
  0.7669491525423737  0.8644067796610173  0.3976208246282127   F   F   F
  0.9194915254237301  0.6440677966101660  0.4162352201503552   F   F   F
  0.8220338983050866  0.4237288135593218  0.4348496156724977   F   F   F
  0.9745762711864430  0.2033898305084776  0.4534640111946402   F   F   F
  0.8767850754771769  0.9880037307304841  0.4638858201149204   T   T   T
  0.7789442834815459  0.7689089883329826  0.4925504620575145   T   T   T
  0.9317964650865347  0.5485312311380592  0.5101287209358359   T   T   T
  0.8330852765420669  0.3314563774894784  0.5283951986960971   T   T   T
  0.9847727208918690  0.1002320013142643  0.5408149603269908   T   T   T
  0.8902570214724933  0.8758892778758378  0.5685028256230790   T   T   T
  0.7933609438781650  0.6617316849073993  0.5870537312852236   T   T   T
  0.9417863686305780  0.4515262174164597  0.6055766718292424   T   T   T
  0.8486576289970112  0.2371465686628393  0.6202156020585579   T   T   T
  0.7472546899794003  0.0246103713888870  0.6309984050417844   T   T   T
  0.5695982700114354  0.4080748908428004  0.6604066278515169   T   T   T
  0.5545861266526348  0.4405192992159957  0.7015660527380314   T   T   T
  0.2562580376515877  0.9636301349463360  0.6979977730824959   T   T   T
  0.2621211841039811  0.9318583877338080  0.7379341748093537   T   T   T
  0.4091523760142349  0.7031244733737582  0.6455159018617421   T   T   T
  0.4217249615031435  0.6317275703739369  0.6676304936849615   T   T   T
 
  0.00000000E+00  0.00000000E+00  0.00000000E+00
  0.00000000E+00  0.00000000E+00  0.00000000E+00
  0.00000000E+00  0.00000000E+00  0.00000000E+00
  0.00000000E+00  0.00000000E+00  0.00000000E+00
  0.00000000E+00  0.00000000E+00  0.00000000E+00
  0.00000000E+00  0.00000000E+00  0.00000000E+00
  0.00000000E+00  0.00000000E+00  0.00000000E+00
  0.00000000E+00  0.00000000E+00  0.00000000E+00
  0.00000000E+00  0.00000000E+00  0.00000000E+00
  0.00000000E+00  0.00000000E+00  0.00000000E+00
  0.00000000E+00  0.00000000E+00  0.00000000E+00
  0.00000000E+00  0.00000000E+00  0.00000000E+00
  0.00000000E+00  0.00000000E+00  0.00000000E+00
  0.00000000E+00  0.00000000E+00  0.00000000E+00
  0.00000000E+00  0.00000000E+00  0.00000000E+00
  0.00000000E+00  0.00000000E+00  0.00000000E+00
  0.00000000E+00  0.00000000E+00  0.00000000E+00
  0.00000000E+00  0.00000000E+00  0.00000000E+00
  0.00000000E+00  0.00000000E+00  0.00000000E+00
  0.00000000E+00  0.00000000E+00  0.00000000E+00
  0.00000000E+00  0.00000000E+00  0.00000000E+00
  0.00000000E+00  0.00000000E+00  0.00000000E+00
  0.00000000E+00  0.00000000E+00  0.00000000E+00
  0.00000000E+00  0.00000000E+00  0.00000000E+00
  0.00000000E+00  0.00000000E+00  0.00000000E+00
  0.00000000E+00  0.00000000E+00  0.00000000E+00
  0.00000000E+00  0.00000000E+00  0.00000000E+00
  0.00000000E+00  0.00000000E+00  0.00000000E+00
  0.00000000E+00  0.00000000E+00  0.00000000E+00
  0.00000000E+00  0.00000000E+00  0.00000000E+00
  0.00000000E+00  0.00000000E+00  0.00000000E+00
  0.00000000E+00  0.00000000E+00  0.00000000E+00
  0.00000000E+00  0.00000000E+00  0.00000000E+00
  0.00000000E+00  0.00000000E+00  0.00000000E+00
  0.00000000E+00  0.00000000E+00  0.00000000E+00
  0.00000000E+00  0.00000000E+00  0.00000000E+00
  0.00000000E+00  0.00000000E+00  0.00000000E+00
  0.00000000E+00  0.00000000E+00  0.00000000E+00
  0.00000000E+00  0.00000000E+00  0.00000000E+00
  0.00000000E+00  0.00000000E+00  0.00000000E+00
  0.00000000E+00  0.00000000E+00  0.00000000E+00
  0.00000000E+00  0.00000000E+00  0.00000000E+00
  0.00000000E+00  0.00000000E+00  0.00000000E+00
  0.00000000E+00  0.00000000E+00  0.00000000E+00
  0.00000000E+00  0.00000000E+00  0.00000000E+00
  0.00000000E+00  0.00000000E+00  0.00000000E+00
  0.00000000E+00  0.00000000E+00  0.00000000E+00
  0.00000000E+00  0.00000000E+00  0.00000000E+00
  0.00000000E+00  0.00000000E+00  0.00000000E+00
  0.00000000E+00  0.00000000E+00  0.00000000E+00
  0.00000000E+00  0.00000000E+00  0.00000000E+00
  0.00000000E+00  0.00000000E+00  0.00000000E+00
  0.00000000E+00  0.00000000E+00  0.00000000E+00
  0.00000000E+00  0.00000000E+00  0.00000000E+00
  0.00000000E+00  0.00000000E+00  0.00000000E+00
  0.00000000E+00  0.00000000E+00  0.00000000E+00
  0.00000000E+00  0.00000000E+00  0.00000000E+00
  0.00000000E+00  0.00000000E+00  0.00000000E+00
  0.00000000E+00  0.00000000E+00  0.00000000E+00
  0.00000000E+00  0.00000000E+00  0.00000000E+00
  0.00000000E+00  0.00000000E+00  0.00000000E+00
  0.00000000E+00  0.00000000E+00  0.00000000E+00
