Pt  C  O  C  O  H                       
    1.000000000000000     
    11.2213408561008308    0.0000000000000000    0.0000000000000000
     1.4026676070126025   10.7740943252779040    0.0000000000000000
     0.0000000000000000    0.0000000000000000   27.7475611781839042
   Pt   C    O    C    O    H 
    56     1     1     1     2     1
Selective dynamics
Direct
  0.0169491525423737  0.8644067796610173  0.3976208246282127   F   F   F
  0.1694915254237301  0.6440677966101660  0.4162352201503552   F   F   F
  0.0720338983050866  0.4237288135593218  0.4348496156724977   F   F   F
  0.2245762711864430  0.2033898305084776  0.4534640111946402   F   F   F
  0.1265677276516773  0.9872033215254350  0.4652038771785879   T   T   T
  0.0286711864909706  0.7698080108875412  0.4931895799864733   T   T   T
  0.1796371913657205  0.5504363658985668  0.5100044975473648   T   T   T
  0.0839689052409773  0.3304776006255222  0.5274867915335700   T   T   T
  0.2385995867452252  0.1045202464296198  0.5406929260951964   T   T   T
  0.1403421828673045  0.8805145844623784  0.5688596427101014   T   T   T
  0.0435102782455722  0.6694824135865263  0.5914272752351852   T   T   T
  0.1956728281056009  0.4512291994893278  0.6039820513398294   T   T   T
  0.0985976086538162  0.2397671129592207  0.6198739705150865   T   T   T
  0.9991674944502654  0.0267379932384142  0.6311177170161052   T   T   T
  0.2669491525423737  0.8644067796610173  0.3976208246282127   F   F   F
  0.4194915254237301  0.6440677966101660  0.4162352201503552   F   F   F
  0.3220338983050866  0.4237288135593218  0.4348496156724977   F   F   F
  0.4745762711864430  0.2033898305084776  0.4534640111946402   F   F   F
  0.3769185770496564  0.9871482344167555  0.4649259442062188   T   T   T
  0.2792173068692814  0.7705277057933270  0.4922972022951940   T   T   T
  0.4316915762155450  0.5506217874297908  0.5103883686129200   T   T   T
  0.3353260775069948  0.3332744150873121  0.5280889585088526   T   T   T
  0.4876873292696500  0.1020131808660808  0.5403174698168762   T   T   T
  0.3905094769074920  0.8803735264941293  0.5686842604395805   T   T   T
  0.2874272404708008  0.6673058440095340  0.5853432899093186   T   T   T
  0.4396886379064595  0.4568220961588767  0.6093422207437508   T   T   T
  0.3471772411319564  0.2410282623152838  0.6201026864124620   T   T   T
  0.2488968822468547  0.0262270979241994  0.6308919407867976   T   T   T
  0.5169491525423737  0.8644067796610173  0.3976208246282127   F   F   F
  0.6694915254237301  0.6440677966101660  0.4162352201503552   F   F   F
  0.5720338983050866  0.4237288135593218  0.4348496156724977   F   F   F
  0.7245762711864430  0.2033898305084776  0.4534640111946402   F   F   F
  0.6270119376530001  0.9861049853458587  0.4653922988127301   T   T   T
  0.5291046008249404  0.7685578513141709  0.4938356805369635   T   T   T
  0.6811113185859082  0.5517870843438712  0.5128734931859266   T   T   T
  0.5830643191605627  0.3332282072806176  0.5284755652716467   T   T   T
  0.7364107027079836  0.1044885176364031  0.5404855207375985   T   T   T
  0.6404898290737564  0.8772787406634690  0.5695309103395102   T   T   T
  0.5406590636990063  0.6685429496976176  0.5925678908400966   T   T   T
  0.7000940566812602  0.4494510354266397  0.6070643913052582   T   T   T
  0.5943420708790105  0.2394451014448360  0.6188347264949520   T   T   T
  0.4970900898090508  0.0270603581112312  0.6308518753055428   T   T   T
  0.7669491525423737  0.8644067796610173  0.3976208246282127   F   F   F
  0.9194915254237301  0.6440677966101660  0.4162352201503552   F   F   F
  0.8220338983050866  0.4237288135593218  0.4348496156724977   F   F   F
  0.9745762711864430  0.2033898305084776  0.4534640111946402   F   F   F
  0.8766568280192122  0.9872461433222449  0.4646767562337595   T   T   T
  0.7785263984585093  0.7695644273020931  0.4930303364462428   T   T   T
  0.9309713990177019  0.5511314106746420  0.5103916160028111   T   T   T
  0.8338864633421500  0.3333682744223252  0.5277068622872759   T   T   T
  0.9883232034615510  0.1025108698027668  0.5404678410843248   T   T   T
  0.8904863043760910  0.8832575039442682  0.5676056585460478   T   T   T
  0.7941987434323501  0.6694132220541964  0.5904701488646494   T   T   T
  0.9492092377794370  0.4523605765089761  0.6066144487594869   T   T   T
  0.8492715233198826  0.2367051357000091  0.6182446759772875   T   T   T
  0.7473012824665268  0.0257359194388507  0.6306053074746176   T   T   T
  0.4672957985663246  0.6012089782936954  0.6520334750087717   T   T   T
  0.4523688493344689  0.6303001731966230  0.6927756698219045   T   T   T
  0.9258974721745977  0.6215435020270136  0.6442990206338391   T   T   T
  0.9193068350071717  0.6409058457977701  0.6868488503178873   T   T   T
  0.6973204472525271  0.4659183672422014  0.6784181425920036   T   T   T
  0.7724178293918081  0.4956894069635031  0.6884609206383481   T   T   T
 
  0.00000000E+00  0.00000000E+00  0.00000000E+00
  0.00000000E+00  0.00000000E+00  0.00000000E+00
  0.00000000E+00  0.00000000E+00  0.00000000E+00
  0.00000000E+00  0.00000000E+00  0.00000000E+00
  0.00000000E+00  0.00000000E+00  0.00000000E+00
  0.00000000E+00  0.00000000E+00  0.00000000E+00
  0.00000000E+00  0.00000000E+00  0.00000000E+00
  0.00000000E+00  0.00000000E+00  0.00000000E+00
  0.00000000E+00  0.00000000E+00  0.00000000E+00
  0.00000000E+00  0.00000000E+00  0.00000000E+00
  0.00000000E+00  0.00000000E+00  0.00000000E+00
  0.00000000E+00  0.00000000E+00  0.00000000E+00
  0.00000000E+00  0.00000000E+00  0.00000000E+00
  0.00000000E+00  0.00000000E+00  0.00000000E+00
  0.00000000E+00  0.00000000E+00  0.00000000E+00
  0.00000000E+00  0.00000000E+00  0.00000000E+00
  0.00000000E+00  0.00000000E+00  0.00000000E+00
  0.00000000E+00  0.00000000E+00  0.00000000E+00
  0.00000000E+00  0.00000000E+00  0.00000000E+00
  0.00000000E+00  0.00000000E+00  0.00000000E+00
  0.00000000E+00  0.00000000E+00  0.00000000E+00
  0.00000000E+00  0.00000000E+00  0.00000000E+00
  0.00000000E+00  0.00000000E+00  0.00000000E+00
  0.00000000E+00  0.00000000E+00  0.00000000E+00
  0.00000000E+00  0.00000000E+00  0.00000000E+00
  0.00000000E+00  0.00000000E+00  0.00000000E+00
  0.00000000E+00  0.00000000E+00  0.00000000E+00
  0.00000000E+00  0.00000000E+00  0.00000000E+00
  0.00000000E+00  0.00000000E+00  0.00000000E+00
  0.00000000E+00  0.00000000E+00  0.00000000E+00
  0.00000000E+00  0.00000000E+00  0.00000000E+00
  0.00000000E+00  0.00000000E+00  0.00000000E+00
  0.00000000E+00  0.00000000E+00  0.00000000E+00
  0.00000000E+00  0.00000000E+00  0.00000000E+00
  0.00000000E+00  0.00000000E+00  0.00000000E+00
  0.00000000E+00  0.00000000E+00  0.00000000E+00
  0.00000000E+00  0.00000000E+00  0.00000000E+00
  0.00000000E+00  0.00000000E+00  0.00000000E+00
  0.00000000E+00  0.00000000E+00  0.00000000E+00
  0.00000000E+00  0.00000000E+00  0.00000000E+00
  0.00000000E+00  0.00000000E+00  0.00000000E+00
  0.00000000E+00  0.00000000E+00  0.00000000E+00
  0.00000000E+00  0.00000000E+00  0.00000000E+00
  0.00000000E+00  0.00000000E+00  0.00000000E+00
  0.00000000E+00  0.00000000E+00  0.00000000E+00
  0.00000000E+00  0.00000000E+00  0.00000000E+00
  0.00000000E+00  0.00000000E+00  0.00000000E+00
  0.00000000E+00  0.00000000E+00  0.00000000E+00
  0.00000000E+00  0.00000000E+00  0.00000000E+00
  0.00000000E+00  0.00000000E+00  0.00000000E+00
  0.00000000E+00  0.00000000E+00  0.00000000E+00
  0.00000000E+00  0.00000000E+00  0.00000000E+00
  0.00000000E+00  0.00000000E+00  0.00000000E+00
  0.00000000E+00  0.00000000E+00  0.00000000E+00
  0.00000000E+00  0.00000000E+00  0.00000000E+00
  0.00000000E+00  0.00000000E+00  0.00000000E+00
  0.00000000E+00  0.00000000E+00  0.00000000E+00
  0.00000000E+00  0.00000000E+00  0.00000000E+00
  0.00000000E+00  0.00000000E+00  0.00000000E+00
  0.00000000E+00  0.00000000E+00  0.00000000E+00
  0.00000000E+00  0.00000000E+00  0.00000000E+00
  0.00000000E+00  0.00000000E+00  0.00000000E+00
