Pt  C  O  C  O  H                       
    1.000000000000000     
    11.2213408561008308    0.0000000000000000    0.0000000000000000
     1.4026676070126025   10.7740943252779040    0.0000000000000000
     0.0000000000000000    0.0000000000000000   27.7475611781839042
   Pt   C    O    C    O    H 
    56     1     1     1     2     1
Selective dynamics
Direct
  0.0169491525423737  0.8644067796610173  0.3976208246282127   F   F   F
  0.1694915254237301  0.6440677966101660  0.4162352201503552   F   F   F
  0.0720338983050866  0.4237288135593218  0.4348496156724977   F   F   F
  0.2245762711864430  0.2033898305084776  0.4534640111946402   F   F   F
  0.1261794806406967  0.9884273013369932  0.4646928658492479   T   T   T
  0.0283655676335076  0.7705303602763629  0.4923758621554473   T   T   T
  0.1811142499336142  0.5469403674271789  0.5108295485417318   T   T   T
  0.0837681235429748  0.3310302297246039  0.5286659163241405   T   T   T
  0.2366331723814017  0.1058221623952052  0.5408149742327749   T   T   T
  0.1387091583433419  0.8822399887644478  0.5681220353055128   T   T   T
  0.0408774704271972  0.6676251670293966  0.5860545982635960   T   T   T
  0.1912248462561140  0.4622280050570414  0.6088393167004565   T   T   T
  0.0911484462110449  0.2463145565877444  0.6253587458845635   T   T   T
  0.9974420581350089  0.0317615789674715  0.6307185991858226   T   T   T
  0.2669491525423737  0.8644067796610173  0.3976208246282127   F   F   F
  0.4194915254237301  0.6440677966101660  0.4162352201503552   F   F   F
  0.3220338983050866  0.4237288135593218  0.4348496156724977   F   F   F
  0.4745762711864430  0.2033898305084776  0.4534640111946402   F   F   F
  0.3770174427096625  0.9881539881503687  0.4643494448897162   T   T   T
  0.2776280209047097  0.7701676462340110  0.4922075132499831   T   T   T
  0.4320126406646445  0.5489536165291590  0.5102428818724651   T   T   T
  0.3332363174098558  0.3322228755287862  0.5296493312958573   T   T   T
  0.4849629547016301  0.1075350188064220  0.5409678458119087   T   T   T
  0.3886006068483692  0.8814904615295122  0.5675613888859437   T   T   T
  0.2878263094866237  0.6687517351881352  0.5853330088530707   T   T   T
  0.4432123647774256  0.4604171396547358  0.6069797194585358   T   T   T
  0.3440814713464860  0.2461250507464845  0.6251869865792112   T   T   T
  0.2452608367693601  0.0277784654266035  0.6300191288603600   T   T   T
  0.5169491525423737  0.8644067796610173  0.3976208246282127   F   F   F
  0.6694915254237301  0.6440677966101660  0.4162352201503552   F   F   F
  0.5720338983050866  0.4237288135593218  0.4348496156724977   F   F   F
  0.7245762711864430  0.2033898305084776  0.4534640111946402   F   F   F
  0.6261130914279186  0.9883779397809336  0.4645948684565201   T   T   T
  0.5285828942752946  0.7694379537639220  0.4930502161810179   T   T   T
  0.6796106978097178  0.5492189623942280  0.5103189998709753   T   T   T
  0.5824236301332406  0.3304766354320530  0.5316688912052380   T   T   T
  0.7363137361594844  0.1062636925940819  0.5409557481232309   T   T   T
  0.6396595734332146  0.8839207172865714  0.5680510734147318   T   T   T
  0.5418650532540789  0.6747544006413103  0.5900307332641755   T   T   T
  0.6963521742144928  0.4599451857067530  0.6077479896859305   T   T   T
  0.5958240513776334  0.2443400796962896  0.6256592420146859   T   T   T
  0.4922069412643111  0.0299020293008944  0.6293223960715487   T   T   T
  0.7669491525423737  0.8644067796610173  0.3976208246282127   F   F   F
  0.9194915254237301  0.6440677966101660  0.4162352201503552   F   F   F
  0.8220338983050866  0.4237288135593218  0.4348496156724977   F   F   F
  0.9745762711864430  0.2033898305084776  0.4534640111946402   F   F   F
  0.8762995049028297  0.9890668651234252  0.4644753295209096   T   T   T
  0.7784062426732067  0.7718774115424982  0.4920300580165899   T   T   T
  0.9306044178768131  0.5487147358307639  0.5090240950922059   T   T   T
  0.8316058730385992  0.3322393422567028  0.5284508690140662   T   T   T
  0.9875266142998887  0.1073321818768525  0.5409405674107879   T   T   T
  0.8910791272266008  0.8839982209391745  0.5681423053645244   T   T   T
  0.7945786108820353  0.6715585993659049  0.5849010921251336   T   T   T
  0.9402800667186997  0.4593528035166424  0.6036688961873509   T   T   T
  0.8470446656232890  0.2465546187564404  0.6212729716834694   T   T   T
  0.7498938008250013  0.0295609893273225  0.6299198548672393   T   T   T
  0.5578642149120075  0.5593749258939303  0.6496001989732881   T   T   T
  0.5549460317459166  0.5776252872063982  0.6920933077998273   T   T   T
  0.2058733361526882  0.3412318937679313  0.6673839859747090   T   T   T
  0.2039513473437939  0.3572923914835128  0.7100318692556928   T   T   T
  0.6033082653347659  0.2342462032042988  0.6972877917513052   T   T   T
  0.6615830733722591  0.2891770061387055  0.7072805464260826   T   T   T
 
  0.00000000E+00  0.00000000E+00  0.00000000E+00
  0.00000000E+00  0.00000000E+00  0.00000000E+00
  0.00000000E+00  0.00000000E+00  0.00000000E+00
  0.00000000E+00  0.00000000E+00  0.00000000E+00
  0.00000000E+00  0.00000000E+00  0.00000000E+00
  0.00000000E+00  0.00000000E+00  0.00000000E+00
  0.00000000E+00  0.00000000E+00  0.00000000E+00
  0.00000000E+00  0.00000000E+00  0.00000000E+00
  0.00000000E+00  0.00000000E+00  0.00000000E+00
  0.00000000E+00  0.00000000E+00  0.00000000E+00
  0.00000000E+00  0.00000000E+00  0.00000000E+00
  0.00000000E+00  0.00000000E+00  0.00000000E+00
  0.00000000E+00  0.00000000E+00  0.00000000E+00
  0.00000000E+00  0.00000000E+00  0.00000000E+00
  0.00000000E+00  0.00000000E+00  0.00000000E+00
  0.00000000E+00  0.00000000E+00  0.00000000E+00
  0.00000000E+00  0.00000000E+00  0.00000000E+00
  0.00000000E+00  0.00000000E+00  0.00000000E+00
  0.00000000E+00  0.00000000E+00  0.00000000E+00
  0.00000000E+00  0.00000000E+00  0.00000000E+00
  0.00000000E+00  0.00000000E+00  0.00000000E+00
  0.00000000E+00  0.00000000E+00  0.00000000E+00
  0.00000000E+00  0.00000000E+00  0.00000000E+00
  0.00000000E+00  0.00000000E+00  0.00000000E+00
  0.00000000E+00  0.00000000E+00  0.00000000E+00
  0.00000000E+00  0.00000000E+00  0.00000000E+00
  0.00000000E+00  0.00000000E+00  0.00000000E+00
  0.00000000E+00  0.00000000E+00  0.00000000E+00
  0.00000000E+00  0.00000000E+00  0.00000000E+00
  0.00000000E+00  0.00000000E+00  0.00000000E+00
  0.00000000E+00  0.00000000E+00  0.00000000E+00
  0.00000000E+00  0.00000000E+00  0.00000000E+00
  0.00000000E+00  0.00000000E+00  0.00000000E+00
  0.00000000E+00  0.00000000E+00  0.00000000E+00
  0.00000000E+00  0.00000000E+00  0.00000000E+00
  0.00000000E+00  0.00000000E+00  0.00000000E+00
  0.00000000E+00  0.00000000E+00  0.00000000E+00
  0.00000000E+00  0.00000000E+00  0.00000000E+00
  0.00000000E+00  0.00000000E+00  0.00000000E+00
  0.00000000E+00  0.00000000E+00  0.00000000E+00
  0.00000000E+00  0.00000000E+00  0.00000000E+00
  0.00000000E+00  0.00000000E+00  0.00000000E+00
  0.00000000E+00  0.00000000E+00  0.00000000E+00
  0.00000000E+00  0.00000000E+00  0.00000000E+00
  0.00000000E+00  0.00000000E+00  0.00000000E+00
  0.00000000E+00  0.00000000E+00  0.00000000E+00
  0.00000000E+00  0.00000000E+00  0.00000000E+00
  0.00000000E+00  0.00000000E+00  0.00000000E+00
  0.00000000E+00  0.00000000E+00  0.00000000E+00
  0.00000000E+00  0.00000000E+00  0.00000000E+00
  0.00000000E+00  0.00000000E+00  0.00000000E+00
  0.00000000E+00  0.00000000E+00  0.00000000E+00
  0.00000000E+00  0.00000000E+00  0.00000000E+00
  0.00000000E+00  0.00000000E+00  0.00000000E+00
  0.00000000E+00  0.00000000E+00  0.00000000E+00
  0.00000000E+00  0.00000000E+00  0.00000000E+00
  0.00000000E+00  0.00000000E+00  0.00000000E+00
  0.00000000E+00  0.00000000E+00  0.00000000E+00
  0.00000000E+00  0.00000000E+00  0.00000000E+00
  0.00000000E+00  0.00000000E+00  0.00000000E+00
  0.00000000E+00  0.00000000E+00  0.00000000E+00
  0.00000000E+00  0.00000000E+00  0.00000000E+00
