Pt  C  O  C  O  H                       
    1.000000000000000     
    11.2213408561008308    0.0000000000000000    0.0000000000000000
     1.4026676070126025   10.7740943252779040    0.0000000000000000
     0.0000000000000000    0.0000000000000000   27.7475611781839042
   Pt   C    O    C    O    H 
    56     1     1     1     2     1
Selective dynamics
Direct
  0.0169491525423737  0.8644067796610173  0.3976208246282127   F   F   F
  0.1694915254237301  0.6440677966101660  0.4162352201503552   F   F   F
  0.0720338983050866  0.4237288135593218  0.4348496156724977   F   F   F
  0.2245762711864430  0.2033898305084776  0.4534640111946402   F   F   F
  0.1270026824443825  0.9871984962537423  0.4650189470805581   T   T   T
  0.0274101270991358  0.7714972355727843  0.4925646702163506   T   T   T
  0.1818004553701950  0.5508748113127194  0.5100063164864389   T   T   T
  0.0837599991354488  0.3308802769688857  0.5266158864085493   T   T   T
  0.2357375117326414  0.1053886609789816  0.5409854182770886   T   T   T
  0.1386799166755880  0.8799918392005492  0.5688331246139673   T   T   T
  0.0428275683386295  0.6654034994358202  0.5859369767151061   T   T   T
  0.1891888630932872  0.4529507441332466  0.6029255240803572   T   T   T
  0.0928646580700024  0.2425136334214347  0.6198450660785048   T   T   T
  0.9946626721813686  0.0291750627876751  0.6310332522379336   T   T   T
  0.2669491525423737  0.8644067796610173  0.3976208246282127   F   F   F
  0.4194915254237301  0.6440677966101660  0.4162352201503552   F   F   F
  0.3220338983050866  0.4237288135593218  0.4348496156724977   F   F   F
  0.4745762711864430  0.2033898305084776  0.4534640111946402   F   F   F
  0.3772308676760857  0.9886675590706653  0.4657165848893831   T   T   T
  0.2778735647245407  0.7699259512769859  0.4929383522972903   T   T   T
  0.4306503157724993  0.5515718196359675  0.5104728980995239   T   T   T
  0.3349302532457724  0.3315186420464065  0.5276837247785484   T   T   T
  0.4861713564505532  0.1043708972125579  0.5452220634230588   T   T   T
  0.3873837820064950  0.8847388342073984  0.5679952792425356   T   T   T
  0.2891785318101299  0.6696645532782547  0.5911603254611882   T   T   T
  0.4413090432606020  0.4541763506205426  0.6088307849029657   T   T   T
  0.3421114913180767  0.2415444435627312  0.6194336300811599   T   T   T
  0.2392858832280521  0.0275744360031189  0.6311168311228960   T   T   T
  0.5169491525423737  0.8644067796610173  0.3976208246282127   F   F   F
  0.6694915254237301  0.6440677966101660  0.4162352201503552   F   F   F
  0.5720338983050866  0.4237288135593218  0.4348496156724977   F   F   F
  0.7245762711864430  0.2033898305084776  0.4534640111946402   F   F   F
  0.6254847061786878  0.9886325086474105  0.4658954613933544   T   T   T
  0.5278343813684945  0.7713292835269837  0.4932107094489969   T   T   T
  0.6804672014649451  0.5537155784245383  0.5113527098027632   T   T   T
  0.5817884792089008  0.3323220018447681  0.5274289547178603   T   T   T
  0.7364115554871495  0.1058405350869926  0.5412146420034990   T   T   T
  0.6372805721372157  0.8832095624264921  0.5683070516064472   T   T   T
  0.5379824442617739  0.6694171495075734  0.5898210979537298   T   T   T
  0.6943978360308459  0.4527978923572935  0.6024055337763291   T   T   T
  0.5942866020812796  0.2413633866365133  0.6192820798056415   T   T   T
  0.4950426074301588  0.0252121738853604  0.6359416870275907   T   T   T
  0.7669491525423737  0.8644067796610173  0.3976208246282127   F   F   F
  0.9194915254237301  0.6440677966101660  0.4162352201503552   F   F   F
  0.8220338983050866  0.4237288135593218  0.4348496156724977   F   F   F
  0.9745762711864430  0.2033898305084776  0.4534640111946402   F   F   F
  0.8755826094443422  0.9884055033683236  0.4646322336734859   T   T   T
  0.7779676149204640  0.7708862927757141  0.4932328382446289   T   T   T
  0.9300333913366142  0.5509810233317404  0.5104935344213348   T   T   T
  0.8329183479326975  0.3315442751073207  0.5266332022563757   T   T   T
  0.9867617993616515  0.1029114652832991  0.5404372197272863   T   T   T
  0.8896558659969069  0.8813443589449487  0.5678244034956256   T   T   T
  0.7890227729400550  0.6706444514313580  0.5910115256393934   T   T   T
  0.9426892193921101  0.4531207637393696  0.6034726384050627   T   T   T
  0.8431986243085285  0.2418577072386020  0.6192247287541943   T   T   T
  0.7509802136526701  0.0248501103215779  0.6311859235823053   T   T   T
  0.4216812099772484  0.6239788541191884  0.6449001666382203   T   T   T
  0.4193873218529798  0.6505604070281896  0.6867311781383210   T   T   T
  0.5007198165617821  0.9769497280439300  0.7002238039843649   T   T   T
  0.5035305074776639  0.9494736671153803  0.7405862136504169   T   T   T
  0.7825415444874021  0.7201375865491156  0.6602763341563395   T   T   T
  0.8581823431479912  0.6820362217249789  0.6746436950489982   T   T   T
 
  0.00000000E+00  0.00000000E+00  0.00000000E+00
  0.00000000E+00  0.00000000E+00  0.00000000E+00
  0.00000000E+00  0.00000000E+00  0.00000000E+00
  0.00000000E+00  0.00000000E+00  0.00000000E+00
  0.00000000E+00  0.00000000E+00  0.00000000E+00
  0.00000000E+00  0.00000000E+00  0.00000000E+00
  0.00000000E+00  0.00000000E+00  0.00000000E+00
  0.00000000E+00  0.00000000E+00  0.00000000E+00
  0.00000000E+00  0.00000000E+00  0.00000000E+00
  0.00000000E+00  0.00000000E+00  0.00000000E+00
  0.00000000E+00  0.00000000E+00  0.00000000E+00
  0.00000000E+00  0.00000000E+00  0.00000000E+00
  0.00000000E+00  0.00000000E+00  0.00000000E+00
  0.00000000E+00  0.00000000E+00  0.00000000E+00
  0.00000000E+00  0.00000000E+00  0.00000000E+00
  0.00000000E+00  0.00000000E+00  0.00000000E+00
  0.00000000E+00  0.00000000E+00  0.00000000E+00
  0.00000000E+00  0.00000000E+00  0.00000000E+00
  0.00000000E+00  0.00000000E+00  0.00000000E+00
  0.00000000E+00  0.00000000E+00  0.00000000E+00
  0.00000000E+00  0.00000000E+00  0.00000000E+00
  0.00000000E+00  0.00000000E+00  0.00000000E+00
  0.00000000E+00  0.00000000E+00  0.00000000E+00
  0.00000000E+00  0.00000000E+00  0.00000000E+00
  0.00000000E+00  0.00000000E+00  0.00000000E+00
  0.00000000E+00  0.00000000E+00  0.00000000E+00
  0.00000000E+00  0.00000000E+00  0.00000000E+00
  0.00000000E+00  0.00000000E+00  0.00000000E+00
  0.00000000E+00  0.00000000E+00  0.00000000E+00
  0.00000000E+00  0.00000000E+00  0.00000000E+00
  0.00000000E+00  0.00000000E+00  0.00000000E+00
  0.00000000E+00  0.00000000E+00  0.00000000E+00
  0.00000000E+00  0.00000000E+00  0.00000000E+00
  0.00000000E+00  0.00000000E+00  0.00000000E+00
  0.00000000E+00  0.00000000E+00  0.00000000E+00
  0.00000000E+00  0.00000000E+00  0.00000000E+00
  0.00000000E+00  0.00000000E+00  0.00000000E+00
  0.00000000E+00  0.00000000E+00  0.00000000E+00
  0.00000000E+00  0.00000000E+00  0.00000000E+00
  0.00000000E+00  0.00000000E+00  0.00000000E+00
  0.00000000E+00  0.00000000E+00  0.00000000E+00
  0.00000000E+00  0.00000000E+00  0.00000000E+00
  0.00000000E+00  0.00000000E+00  0.00000000E+00
  0.00000000E+00  0.00000000E+00  0.00000000E+00
  0.00000000E+00  0.00000000E+00  0.00000000E+00
  0.00000000E+00  0.00000000E+00  0.00000000E+00
  0.00000000E+00  0.00000000E+00  0.00000000E+00
  0.00000000E+00  0.00000000E+00  0.00000000E+00
  0.00000000E+00  0.00000000E+00  0.00000000E+00
  0.00000000E+00  0.00000000E+00  0.00000000E+00
  0.00000000E+00  0.00000000E+00  0.00000000E+00
  0.00000000E+00  0.00000000E+00  0.00000000E+00
  0.00000000E+00  0.00000000E+00  0.00000000E+00
  0.00000000E+00  0.00000000E+00  0.00000000E+00
  0.00000000E+00  0.00000000E+00  0.00000000E+00
  0.00000000E+00  0.00000000E+00  0.00000000E+00
  0.00000000E+00  0.00000000E+00  0.00000000E+00
  0.00000000E+00  0.00000000E+00  0.00000000E+00
  0.00000000E+00  0.00000000E+00  0.00000000E+00
  0.00000000E+00  0.00000000E+00  0.00000000E+00
  0.00000000E+00  0.00000000E+00  0.00000000E+00
  0.00000000E+00  0.00000000E+00  0.00000000E+00
