Pt  C  O  C  O  H                       
    1.000000000000000     
    11.2213408561008308    0.0000000000000000    0.0000000000000000
     1.4026676070126025   10.7740943252779040    0.0000000000000000
     0.0000000000000000    0.0000000000000000   27.7475611781839042
   Pt   C    O    C    O    H 
    56     1     1     1     2     1
Selective dynamics
Direct
  0.0169491525423737  0.8644067796610173  0.3976208246282127   F   F   F
  0.1694915254237301  0.6440677966101660  0.4162352201503552   F   F   F
  0.0720338983050866  0.4237288135593218  0.4348496156724977   F   F   F
  0.2245762711864430  0.2033898305084776  0.4534640111946402   F   F   F
  0.1261444857276843  0.9910767092823767  0.4665590029969102   T   T   T
  0.0287979236746045  0.7732782137899984  0.4925935740064586   T   T   T
  0.1811122005919908  0.5509104218149832  0.5090059230101659   T   T   T
  0.0842136697419274  0.3285638607108973  0.5262673082790897   T   T   T
  0.2378191493483434  0.1023252620388112  0.5454963902258483   T   T   T
  0.1392947442647715  0.8833968434556400  0.5703589807899379   T   T   T
  0.0418074323683512  0.6683816170212860  0.5857457561851951   T   T   T
  0.1905623373763750  0.4549104841368046  0.6025932897624821   T   T   T
  0.0946299091978764  0.2392270597662809  0.6180956061391947   T   T   T
  0.9916596679857820  0.0251439089827140  0.6358220175983481   T   T   T
  0.2669491525423737  0.8644067796610173  0.3976208246282127   F   F   F
  0.4194915254237301  0.6440677966101660  0.4162352201503552   F   F   F
  0.3220338983050866  0.4237288135593218  0.4348496156724977   F   F   F
  0.4745762711864430  0.2033898305084776  0.4534640111946402   F   F   F
  0.3749382792246187  0.9895976523617294  0.4654347746551342   T   T   T
  0.2776637348200921  0.7736876703511448  0.4927951635118856   T   T   T
  0.4323761123484515  0.5480326533524060  0.5086641372398115   T   T   T
  0.3329422948796046  0.3288199505944909  0.5266360372694583   T   T   T
  0.4877232799505377  0.1031285165326586  0.5408768596131976   T   T   T
  0.3913523554300067  0.8809472413230438  0.5687118723210665   T   T   T
  0.2896708588841862  0.6680933141061297  0.5850066759185834   T   T   T
  0.4389416705209462  0.4582179945913825  0.6017417020888103   T   T   T
  0.3403669042065776  0.2430317750157108  0.6189512408501232   T   T   T
  0.2523090209908304  0.0223775157121553  0.6364874613721123   T   T   T
  0.5169491525423737  0.8644067796610173  0.3976208246282127   F   F   F
  0.6694915254237301  0.6440677966101660  0.4162352201503552   F   F   F
  0.5720338983050866  0.4237288135593218  0.4348496156724977   F   F   F
  0.7245762711864430  0.2033898305084776  0.4534640111946402   F   F   F
  0.6263728634310839  0.9884118007284641  0.4645729206536675   T   T   T
  0.5283262539720827  0.7713957610981336  0.4921564007368668   T   T   T
  0.6813488891634591  0.5473991128037476  0.5090791105991139   T   T   T
  0.5845884286309104  0.3255338092611115  0.5321937232261622   T   T   T
  0.7374853963436788  0.1028204445287366  0.5408362904300693   T   T   T
  0.6405385658711764  0.8794072846675952  0.5683767211850308   T   T   T
  0.5422992408249060  0.6652250853828650  0.5851523173700615   T   T   T
  0.6983533123195061  0.4566992969027017  0.6023097930239053   T   T   T
  0.5929999693648477  0.2538947398771537  0.6288883676269632   T   T   T
  0.5013790964417929  0.0289745434925242  0.6301724867469649   T   T   T
  0.7669491525423737  0.8644067796610173  0.3976208246282127   F   F   F
  0.9194915254237301  0.6440677966101660  0.4162352201503552   F   F   F
  0.8220338983050866  0.4237288135593218  0.4348496156724977   F   F   F
  0.9745762711864430  0.2033898305084776  0.4534640111946402   F   F   F
  0.8778868866131094  0.9900053835805075  0.4647807244050878   T   T   T
  0.7791861922976664  0.7722113645733555  0.4923488402631502   T   T   T
  0.9315048841818158  0.5502248234827548  0.5090480944237595   T   T   T
  0.8355750084463419  0.3284119720468519  0.5266974553540364   T   T   T
  0.9873126176631631  0.1023815992380628  0.5447040159778808   T   T   T
  0.8895991489715058  0.8827230542098988  0.5688077433385651   T   T   T
  0.7937279521245812  0.6679045801933078  0.5854790400376003   T   T   T
  0.9444770743391374  0.4565238496167165  0.6027392491066450   T   T   T
  0.8498010698885362  0.2424677271577191  0.6192669550891086   T   T   T
  0.7430099096515753  0.0301441507197476  0.6300688559882521   T   T   T
  0.5908716408329598  0.2721209354975231  0.6947521030133873   T   T   T
  0.5883617542698183  0.2920334527747760  0.7357634571087864   T   T   T
  0.2745598957076323  0.9634466071539883  0.6988822613135689   T   T   T
  0.2895303880741033  0.9248537669930439  0.7378089844993050   T   T   T
  0.9728570861388801  0.9589552444225149  0.7011062345281136   T   T   T
  0.0511728720098735  0.9357680774477521  0.7162810137268059   T   T   T
 
  0.00000000E+00  0.00000000E+00  0.00000000E+00
  0.00000000E+00  0.00000000E+00  0.00000000E+00
  0.00000000E+00  0.00000000E+00  0.00000000E+00
  0.00000000E+00  0.00000000E+00  0.00000000E+00
  0.00000000E+00  0.00000000E+00  0.00000000E+00
  0.00000000E+00  0.00000000E+00  0.00000000E+00
  0.00000000E+00  0.00000000E+00  0.00000000E+00
  0.00000000E+00  0.00000000E+00  0.00000000E+00
  0.00000000E+00  0.00000000E+00  0.00000000E+00
  0.00000000E+00  0.00000000E+00  0.00000000E+00
  0.00000000E+00  0.00000000E+00  0.00000000E+00
  0.00000000E+00  0.00000000E+00  0.00000000E+00
  0.00000000E+00  0.00000000E+00  0.00000000E+00
  0.00000000E+00  0.00000000E+00  0.00000000E+00
  0.00000000E+00  0.00000000E+00  0.00000000E+00
  0.00000000E+00  0.00000000E+00  0.00000000E+00
  0.00000000E+00  0.00000000E+00  0.00000000E+00
  0.00000000E+00  0.00000000E+00  0.00000000E+00
  0.00000000E+00  0.00000000E+00  0.00000000E+00
  0.00000000E+00  0.00000000E+00  0.00000000E+00
  0.00000000E+00  0.00000000E+00  0.00000000E+00
  0.00000000E+00  0.00000000E+00  0.00000000E+00
  0.00000000E+00  0.00000000E+00  0.00000000E+00
  0.00000000E+00  0.00000000E+00  0.00000000E+00
  0.00000000E+00  0.00000000E+00  0.00000000E+00
  0.00000000E+00  0.00000000E+00  0.00000000E+00
  0.00000000E+00  0.00000000E+00  0.00000000E+00
  0.00000000E+00  0.00000000E+00  0.00000000E+00
  0.00000000E+00  0.00000000E+00  0.00000000E+00
  0.00000000E+00  0.00000000E+00  0.00000000E+00
  0.00000000E+00  0.00000000E+00  0.00000000E+00
  0.00000000E+00  0.00000000E+00  0.00000000E+00
  0.00000000E+00  0.00000000E+00  0.00000000E+00
  0.00000000E+00  0.00000000E+00  0.00000000E+00
  0.00000000E+00  0.00000000E+00  0.00000000E+00
  0.00000000E+00  0.00000000E+00  0.00000000E+00
  0.00000000E+00  0.00000000E+00  0.00000000E+00
  0.00000000E+00  0.00000000E+00  0.00000000E+00
  0.00000000E+00  0.00000000E+00  0.00000000E+00
  0.00000000E+00  0.00000000E+00  0.00000000E+00
  0.00000000E+00  0.00000000E+00  0.00000000E+00
  0.00000000E+00  0.00000000E+00  0.00000000E+00
  0.00000000E+00  0.00000000E+00  0.00000000E+00
  0.00000000E+00  0.00000000E+00  0.00000000E+00
  0.00000000E+00  0.00000000E+00  0.00000000E+00
  0.00000000E+00  0.00000000E+00  0.00000000E+00
  0.00000000E+00  0.00000000E+00  0.00000000E+00
  0.00000000E+00  0.00000000E+00  0.00000000E+00
  0.00000000E+00  0.00000000E+00  0.00000000E+00
  0.00000000E+00  0.00000000E+00  0.00000000E+00
  0.00000000E+00  0.00000000E+00  0.00000000E+00
  0.00000000E+00  0.00000000E+00  0.00000000E+00
  0.00000000E+00  0.00000000E+00  0.00000000E+00
  0.00000000E+00  0.00000000E+00  0.00000000E+00
  0.00000000E+00  0.00000000E+00  0.00000000E+00
  0.00000000E+00  0.00000000E+00  0.00000000E+00
  0.00000000E+00  0.00000000E+00  0.00000000E+00
  0.00000000E+00  0.00000000E+00  0.00000000E+00
  0.00000000E+00  0.00000000E+00  0.00000000E+00
  0.00000000E+00  0.00000000E+00  0.00000000E+00
  0.00000000E+00  0.00000000E+00  0.00000000E+00
  0.00000000E+00  0.00000000E+00  0.00000000E+00
