Pt  C  O  C  O  H                       
    1.000000000000000     
    11.2213408561008308    0.0000000000000000    0.0000000000000000
     1.4026676070126025   10.7740943252779040    0.0000000000000000
     0.0000000000000000    0.0000000000000000   27.7475611781839042
   Pt   C    O    C    O    H 
    56     1     1     1     2     1
Selective dynamics
Direct
  0.0169491525423737  0.8644067796610173  0.3976208246282127   F   F   F
  0.1694915254237301  0.6440677966101660  0.4162352201503552   F   F   F
  0.0720338983050866  0.4237288135593218  0.4348496156724977   F   F   F
  0.2245762711864430  0.2033898305084776  0.4534640111946402   F   F   F
  0.1253921047835106  0.9880896338425035  0.4658173961945766   T   T   T
  0.0281155881428674  0.7706820580688154  0.4926507874075669   T   T   T
  0.1813696742918497  0.5504083371927582  0.5099508378278332   T   T   T
  0.0805226483955017  0.3321264082828571  0.5278062680355007   T   T   T
  0.2362737469011062  0.1054825256272356  0.5408553999995511   T   T   T
  0.1401354261585539  0.8809039134775372  0.5691806885128413   T   T   T
  0.0443658614998840  0.6658121438291360  0.5849538309111734   T   T   T
  0.1892766177275892  0.4489093428107571  0.6034367614422702   T   T   T
  0.0919231389111153  0.2363963752761619  0.6190544459169348   T   T   T
  0.9978138748876412  0.0224942608894380  0.6354654267033198   T   T   T
  0.2669491525423737  0.8644067796610173  0.3976208246282127   F   F   F
  0.4194915254237301  0.6440677966101660  0.4162352201503552   F   F   F
  0.3220338983050866  0.4237288135593218  0.4348496156724977   F   F   F
  0.4745762711864430  0.2033898305084776  0.4534640111946402   F   F   F
  0.3758271026112868  0.9868501153720296  0.4649230588251366   T   T   T
  0.2782232862592584  0.7693816051043291  0.4931496133262580   T   T   T
  0.4311675266129568  0.5498225115426904  0.5107224060188323   T   T   T
  0.3330589773183115  0.3322125578498453  0.5277806195248779   T   T   T
  0.4863640339491128  0.1015074727872673  0.5404042257008718   T   T   T
  0.3895635173368605  0.8807266763136432  0.5675424580023101   T   T   T
  0.2892562650253341  0.6667804353027226  0.5907748367656087   T   T   T
  0.4405926727199338  0.4524887886395397  0.6094708897666091   T   T   T
  0.3425850805010618  0.2410154884069610  0.6198729573173196   T   T   T
  0.2513079554414902  0.0249898495463373  0.6309895882780003   T   T   T
  0.5169491525423737  0.8644067796610173  0.3976208246282127   F   F   F
  0.6694915254237301  0.6440677966101660  0.4162352201503552   F   F   F
  0.5720338983050866  0.4237288135593218  0.4348496156724977   F   F   F
  0.7245762711864430  0.2033898305084776  0.4534640111946402   F   F   F
  0.6274829224865829  0.9855501345076340  0.4655214663176596   T   T   T
  0.5282887319246298  0.7691754765267548  0.4933517657625555   T   T   T
  0.6803184777824441  0.5513923789996223  0.5108441184636436   T   T   T
  0.5813330389398529  0.3313504293938694  0.5275192349712856   T   T   T
  0.7348650112867408  0.1039654832442367  0.5409342250543819   T   T   T
  0.6389331055697115  0.8761498909402724  0.5696991120989076   T   T   T
  0.5401669966448506  0.6657983777480545  0.5910558693319466   T   T   T
  0.6917331231674591  0.4464152584067695  0.6022277888552010   T   T   T
  0.5917212375525113  0.2401979286874472  0.6200592743529529   T   T   T
  0.4941656963486034  0.0273921795362515  0.6311241144339449   T   T   T
  0.7669491525423737  0.8644067796610173  0.3976208246282127   F   F   F
  0.9194915254237301  0.6440677966101660  0.4162352201503552   F   F   F
  0.8220338983050866  0.4237288135593218  0.4348496156724977   F   F   F
  0.9745762711864430  0.2033898305084776  0.4534640111946402   F   F   F
  0.8770776578077761  0.9880863669982801  0.4657926087259582   T   T   T
  0.7792640981014261  0.7689762288108378  0.4943862354408812   T   T   T
  0.9296849285687367  0.5505066450343613  0.5102874252119757   T   T   T
  0.8339326347757386  0.3307418364525246  0.5270337886309036   T   T   T
  0.9862485072559245  0.1014493021751366  0.5443248485855910   T   T   T
  0.8893005449648511  0.8821515746798763  0.5695389254028682   T   T   T
  0.7913761915548314  0.6685684203258070  0.5928642738551055   T   T   T
  0.9424293903745325  0.4541223690113210  0.6098270303252872   T   T   T
  0.8427283000375859  0.2350527264499097  0.6185236122894028   T   T   T
  0.7389960279451842  0.0247657531512616  0.6309534977526114   T   T   T
  0.4201279579842908  0.6235829543558173  0.6451073474218126   T   T   T
  0.4166096884281570  0.6511004232700270  0.6868303574945602   T   T   T
  0.8575456196745623  0.5853617352803515  0.6537680120458119   T   T   T
  0.8524671664211306  0.6055330356850813  0.6956079606235445   T   T   T
  0.9942700936955536  0.9537584342408040  0.7007259731036432   T   T   T
  0.0751929794564976  0.9182824654947106  0.7106656352510989   T   T   T
 
  0.00000000E+00  0.00000000E+00  0.00000000E+00
  0.00000000E+00  0.00000000E+00  0.00000000E+00
  0.00000000E+00  0.00000000E+00  0.00000000E+00
  0.00000000E+00  0.00000000E+00  0.00000000E+00
  0.00000000E+00  0.00000000E+00  0.00000000E+00
  0.00000000E+00  0.00000000E+00  0.00000000E+00
  0.00000000E+00  0.00000000E+00  0.00000000E+00
  0.00000000E+00  0.00000000E+00  0.00000000E+00
  0.00000000E+00  0.00000000E+00  0.00000000E+00
  0.00000000E+00  0.00000000E+00  0.00000000E+00
  0.00000000E+00  0.00000000E+00  0.00000000E+00
  0.00000000E+00  0.00000000E+00  0.00000000E+00
  0.00000000E+00  0.00000000E+00  0.00000000E+00
  0.00000000E+00  0.00000000E+00  0.00000000E+00
  0.00000000E+00  0.00000000E+00  0.00000000E+00
  0.00000000E+00  0.00000000E+00  0.00000000E+00
  0.00000000E+00  0.00000000E+00  0.00000000E+00
  0.00000000E+00  0.00000000E+00  0.00000000E+00
  0.00000000E+00  0.00000000E+00  0.00000000E+00
  0.00000000E+00  0.00000000E+00  0.00000000E+00
  0.00000000E+00  0.00000000E+00  0.00000000E+00
  0.00000000E+00  0.00000000E+00  0.00000000E+00
  0.00000000E+00  0.00000000E+00  0.00000000E+00
  0.00000000E+00  0.00000000E+00  0.00000000E+00
  0.00000000E+00  0.00000000E+00  0.00000000E+00
  0.00000000E+00  0.00000000E+00  0.00000000E+00
  0.00000000E+00  0.00000000E+00  0.00000000E+00
  0.00000000E+00  0.00000000E+00  0.00000000E+00
  0.00000000E+00  0.00000000E+00  0.00000000E+00
  0.00000000E+00  0.00000000E+00  0.00000000E+00
  0.00000000E+00  0.00000000E+00  0.00000000E+00
  0.00000000E+00  0.00000000E+00  0.00000000E+00
  0.00000000E+00  0.00000000E+00  0.00000000E+00
  0.00000000E+00  0.00000000E+00  0.00000000E+00
  0.00000000E+00  0.00000000E+00  0.00000000E+00
  0.00000000E+00  0.00000000E+00  0.00000000E+00
  0.00000000E+00  0.00000000E+00  0.00000000E+00
  0.00000000E+00  0.00000000E+00  0.00000000E+00
  0.00000000E+00  0.00000000E+00  0.00000000E+00
  0.00000000E+00  0.00000000E+00  0.00000000E+00
  0.00000000E+00  0.00000000E+00  0.00000000E+00
  0.00000000E+00  0.00000000E+00  0.00000000E+00
  0.00000000E+00  0.00000000E+00  0.00000000E+00
  0.00000000E+00  0.00000000E+00  0.00000000E+00
  0.00000000E+00  0.00000000E+00  0.00000000E+00
  0.00000000E+00  0.00000000E+00  0.00000000E+00
  0.00000000E+00  0.00000000E+00  0.00000000E+00
  0.00000000E+00  0.00000000E+00  0.00000000E+00
  0.00000000E+00  0.00000000E+00  0.00000000E+00
  0.00000000E+00  0.00000000E+00  0.00000000E+00
  0.00000000E+00  0.00000000E+00  0.00000000E+00
  0.00000000E+00  0.00000000E+00  0.00000000E+00
  0.00000000E+00  0.00000000E+00  0.00000000E+00
  0.00000000E+00  0.00000000E+00  0.00000000E+00
  0.00000000E+00  0.00000000E+00  0.00000000E+00
  0.00000000E+00  0.00000000E+00  0.00000000E+00
  0.00000000E+00  0.00000000E+00  0.00000000E+00
  0.00000000E+00  0.00000000E+00  0.00000000E+00
  0.00000000E+00  0.00000000E+00  0.00000000E+00
  0.00000000E+00  0.00000000E+00  0.00000000E+00
  0.00000000E+00  0.00000000E+00  0.00000000E+00
  0.00000000E+00  0.00000000E+00  0.00000000E+00
