Pt  C  O  C  O  H                       
    1.000000000000000     
    11.2213408561008308    0.0000000000000000    0.0000000000000000
     1.4026676070126025   10.7740943252779040    0.0000000000000000
     0.0000000000000000    0.0000000000000000   27.7475611781839042
   Pt   C    O    C    O    H 
    56     1     1     1     2     1
Selective dynamics
Direct
  0.0169491525423737  0.8644067796610173  0.3976208246282127   F   F   F
  0.1694915254237301  0.6440677966101660  0.4162352201503552   F   F   F
  0.0720338983050866  0.4237288135593218  0.4348496156724977   F   F   F
  0.2245762711864430  0.2033898305084776  0.4534640111946402   F   F   F
  0.1267001060327375  0.9864518400963853  0.4651994213582457   T   T   T
  0.0264498865939342  0.7704517706032034  0.4926086030138088   T   T   T
  0.1805013937744515  0.5500845684910718  0.5100872036160603   T   T   T
  0.0823724924383622  0.3301400928344445  0.5266066936775770   T   T   T
  0.2343256990273453  0.1035434980310790  0.5408822898945693   T   T   T
  0.1369262332598311  0.8775007720630881  0.5689583945029816   T   T   T
  0.0405796235090732  0.6630400574351463  0.5861308203957849   T   T   T
  0.1868323539770079  0.4504715633150359  0.6029391278630167   T   T   T
  0.0907002763934107  0.2397041907148817  0.6195869029841823   T   T   T
  0.9925507057883034  0.0263865155720527  0.6309866504159762   T   T   T
  0.2669491525423737  0.8644067796610173  0.3976208246282127   F   F   F
  0.4194915254237301  0.6440677966101660  0.4162352201503552   F   F   F
  0.3220338983050866  0.4237288135593218  0.4348496156724977   F   F   F
  0.4745762711864430  0.2033898305084776  0.4534640111946402   F   F   F
  0.3768745753681207  0.9879780485676987  0.4658349967907108   T   T   T
  0.2768164391566484  0.7687295486414144  0.4930591894090273   T   T   T
  0.4296476486223259  0.5508396564439727  0.5104114921288014   T   T   T
  0.3337535333293373  0.3305412886298220  0.5275128883146353   T   T   T
  0.4848899388462452  0.1021906371555910  0.5451888194259878   T   T   T
  0.3859724173211476  0.8821144255329173  0.5681742883366871   T   T   T
  0.2871442657863629  0.6670467574588662  0.5913969613349558   T   T   T
  0.4391913453741511  0.4509546201366721  0.6084237716080044   T   T   T
  0.3397219614826176  0.2384018068284524  0.6189587955274793   T   T   T
  0.2371617372890716  0.0247455208951775  0.6310651835210940   T   T   T
  0.5169491525423737  0.8644067796610173  0.3976208246282127   F   F   F
  0.6694915254237301  0.6440677966101660  0.4162352201503552   F   F   F
  0.5720338983050866  0.4237288135593218  0.4348496156724977   F   F   F
  0.7245762711864430  0.2033898305084776  0.4534640111946402   F   F   F
  0.6251024781518032  0.9880840706115269  0.4660299535646404   T   T   T
  0.5269622445195009  0.7702465569927655  0.4933388914311531   T   T   T
  0.6793600178771367  0.5530825889048304  0.5117384019203675   T   T   T
  0.5807274654149792  0.3310912685011200  0.5273356761146313   T   T   T
  0.7354158312407940  0.1044507033240249  0.5411516822515742   T   T   T
  0.6357500876757639  0.8809066237697538  0.5684404924138214   T   T   T
  0.5358713310774214  0.6669679227550976  0.5904958848465893   T   T   T
  0.6922256154956059  0.4502099366682605  0.6026278232117186   T   T   T
  0.5920589405447566  0.2383164761107050  0.6189950033916037   T   T   T
  0.4933407373690345  0.0222385337027270  0.6360019914641315   T   T   T
  0.7669491525423737  0.8644067796610173  0.3976208246282127   F   F   F
  0.9194915254237301  0.6440677966101660  0.4162352201503552   F   F   F
  0.8220338983050866  0.4237288135593218  0.4348496156724977   F   F   F
  0.9745762711864430  0.2033898305084776  0.4534640111946402   F   F   F
  0.8753763630760556  0.9879619560948643  0.4646818273770383   T   T   T
  0.7769051914333944  0.7701652933621708  0.4930694798888574   T   T   T
  0.9284981052880301  0.5505390734789938  0.5106422606096546   T   T   T
  0.8317787617859937  0.3308364407132751  0.5266038862536574   T   T   T
  0.9853862081475507  0.1015151081110077  0.5404388640802320   T   T   T
  0.8877482365132406  0.8789628664174698  0.5677631102071078   T   T   T
  0.7866195741120252  0.6682206729800528  0.5915502427799916   T   T   T
  0.9402754651330812  0.4508384175747286  0.6036764763095364   T   T   T
  0.8411602971175570  0.2394396954541479  0.6191660332300901   T   T   T
  0.7493538834982799  0.0222768256016967  0.6311821658287964   T   T   T
  0.4188176510429025  0.6188899381540877  0.6452749590172423   T   T   T
  0.4162580386388657  0.6437197655785084  0.6872591285985610   T   T   T
  0.5009844663529072  0.9724177387006132  0.7000669979451337   T   T   T
  0.5055413139045619  0.9431741435595766  0.7402539772905629   T   T   T
  0.7799381029535924  0.7212444353129611  0.6605218408672964   T   T   T
  0.8500720920257367  0.6752642543570235  0.6764105830799001   T   T   T
 
  0.00000000E+00  0.00000000E+00  0.00000000E+00
  0.00000000E+00  0.00000000E+00  0.00000000E+00
  0.00000000E+00  0.00000000E+00  0.00000000E+00
  0.00000000E+00  0.00000000E+00  0.00000000E+00
  0.00000000E+00  0.00000000E+00  0.00000000E+00
  0.00000000E+00  0.00000000E+00  0.00000000E+00
  0.00000000E+00  0.00000000E+00  0.00000000E+00
  0.00000000E+00  0.00000000E+00  0.00000000E+00
  0.00000000E+00  0.00000000E+00  0.00000000E+00
  0.00000000E+00  0.00000000E+00  0.00000000E+00
  0.00000000E+00  0.00000000E+00  0.00000000E+00
  0.00000000E+00  0.00000000E+00  0.00000000E+00
  0.00000000E+00  0.00000000E+00  0.00000000E+00
  0.00000000E+00  0.00000000E+00  0.00000000E+00
  0.00000000E+00  0.00000000E+00  0.00000000E+00
  0.00000000E+00  0.00000000E+00  0.00000000E+00
  0.00000000E+00  0.00000000E+00  0.00000000E+00
  0.00000000E+00  0.00000000E+00  0.00000000E+00
  0.00000000E+00  0.00000000E+00  0.00000000E+00
  0.00000000E+00  0.00000000E+00  0.00000000E+00
  0.00000000E+00  0.00000000E+00  0.00000000E+00
  0.00000000E+00  0.00000000E+00  0.00000000E+00
  0.00000000E+00  0.00000000E+00  0.00000000E+00
  0.00000000E+00  0.00000000E+00  0.00000000E+00
  0.00000000E+00  0.00000000E+00  0.00000000E+00
  0.00000000E+00  0.00000000E+00  0.00000000E+00
  0.00000000E+00  0.00000000E+00  0.00000000E+00
  0.00000000E+00  0.00000000E+00  0.00000000E+00
  0.00000000E+00  0.00000000E+00  0.00000000E+00
  0.00000000E+00  0.00000000E+00  0.00000000E+00
  0.00000000E+00  0.00000000E+00  0.00000000E+00
  0.00000000E+00  0.00000000E+00  0.00000000E+00
  0.00000000E+00  0.00000000E+00  0.00000000E+00
  0.00000000E+00  0.00000000E+00  0.00000000E+00
  0.00000000E+00  0.00000000E+00  0.00000000E+00
  0.00000000E+00  0.00000000E+00  0.00000000E+00
  0.00000000E+00  0.00000000E+00  0.00000000E+00
  0.00000000E+00  0.00000000E+00  0.00000000E+00
  0.00000000E+00  0.00000000E+00  0.00000000E+00
  0.00000000E+00  0.00000000E+00  0.00000000E+00
  0.00000000E+00  0.00000000E+00  0.00000000E+00
  0.00000000E+00  0.00000000E+00  0.00000000E+00
  0.00000000E+00  0.00000000E+00  0.00000000E+00
  0.00000000E+00  0.00000000E+00  0.00000000E+00
  0.00000000E+00  0.00000000E+00  0.00000000E+00
  0.00000000E+00  0.00000000E+00  0.00000000E+00
  0.00000000E+00  0.00000000E+00  0.00000000E+00
  0.00000000E+00  0.00000000E+00  0.00000000E+00
  0.00000000E+00  0.00000000E+00  0.00000000E+00
  0.00000000E+00  0.00000000E+00  0.00000000E+00
  0.00000000E+00  0.00000000E+00  0.00000000E+00
  0.00000000E+00  0.00000000E+00  0.00000000E+00
  0.00000000E+00  0.00000000E+00  0.00000000E+00
  0.00000000E+00  0.00000000E+00  0.00000000E+00
  0.00000000E+00  0.00000000E+00  0.00000000E+00
  0.00000000E+00  0.00000000E+00  0.00000000E+00
  0.00000000E+00  0.00000000E+00  0.00000000E+00
  0.00000000E+00  0.00000000E+00  0.00000000E+00
  0.00000000E+00  0.00000000E+00  0.00000000E+00
  0.00000000E+00  0.00000000E+00  0.00000000E+00
  0.00000000E+00  0.00000000E+00  0.00000000E+00
  0.00000000E+00  0.00000000E+00  0.00000000E+00
