Pt  C  O  C  O  H                       
    1.000000000000000     
    11.2213408561008308    0.0000000000000000    0.0000000000000000
     1.4026676070126025   10.7740943252779040    0.0000000000000000
     0.0000000000000000    0.0000000000000000   27.7475611781839042
   Pt   C    O    C    O    H 
    56     1     1     1     2     1
Selective dynamics
Direct
  0.0169491525423737  0.8644067796610173  0.3976208246282127   F   F   F
  0.1694915254237301  0.6440677966101660  0.4162352201503552   F   F   F
  0.0720338983050866  0.4237288135593218  0.4348496156724977   F   F   F
  0.2245762711864430  0.2033898305084776  0.4534640111946402   F   F   F
  0.1270782250518193  0.9879784254939076  0.4655996136474356   T   T   T
  0.0275004180774545  0.7716697497110158  0.4927163031291076   T   T   T
  0.1815433140673930  0.5493593958082946  0.5090397247895416   T   T   T
  0.0844786223206303  0.3291635496453914  0.5270094894595309   T   T   T
  0.2370391739158858  0.1015096862605682  0.5421420207869388   T   T   T
  0.1397289503333414  0.8807770924763649  0.5699437838049591   T   T   T
  0.0423695779853993  0.6638443359193826  0.5859593404454891   T   T   T
  0.1925773037154924  0.4529394701024079  0.6035809690026608   T   T   T
  0.0951875251961303  0.2402766974805095  0.6192900660226827   T   T   T
  0.9972626111828843  0.0272159003804514  0.6319802706663442   T   T   T
  0.2669491525423737  0.8644067796610173  0.3976208246282127   F   F   F
  0.4194915254237301  0.6440677966101660  0.4162352201503552   F   F   F
  0.3220338983050866  0.4237288135593218  0.4348496156724977   F   F   F
  0.4745762711864430  0.2033898305084776  0.4534640111946402   F   F   F
  0.3770403314798084  0.9888049486542568  0.4653416532649334   T   T   T
  0.2777485701345381  0.7717573237355684  0.4926202930703750   T   T   T
  0.4315740955129862  0.5508295609251773  0.5100356435899747   T   T   T
  0.3347928821187113  0.3309670667116049  0.5271876740464151   T   T   T
  0.4887199715930700  0.1035950110989618  0.5430914515985444   T   T   T
  0.3882953491589505  0.8802263076414025  0.5682163541242472   T   T   T
  0.2874335574242887  0.6662795911221019  0.5857176806447346   T   T   T
  0.4397480634536094  0.4545396767208093  0.6064287916259168   T   T   T
  0.3418227926165624  0.2386279988450061  0.6176423184865818   T   T   T
  0.2440567338204234  0.0225374040876290  0.6367345483426171   T   T   T
  0.5169491525423737  0.8644067796610173  0.3976208246282127   F   F   F
  0.6694915254237301  0.6440677966101660  0.4162352201503552   F   F   F
  0.5720338983050866  0.4237288135593218  0.4348496156724977   F   F   F
  0.7245762711864430  0.2033898305084776  0.4534640111946402   F   F   F
  0.6256619270240690  0.9878833856475195  0.4659741011451903   T   T   T
  0.5288832564805958  0.7702317528085916  0.4935581032643981   T   T   T
  0.6794981606613406  0.5497982839457779  0.5101262890301077   T   T   T
  0.5826288777695803  0.3299899569534780  0.5299435491132440   T   T   T
  0.7372445089786224  0.1048167883895103  0.5417491933467357   T   T   T
  0.6394616350229984  0.8809144263198972  0.5698849821211678   T   T   T
  0.5402929191062571  0.6702379685696301  0.5903000028954770   T   T   T
  0.6964280153829819  0.4551966242836946  0.6069272296335239   T   T   T
  0.5956949582547792  0.2369832618356179  0.6228939339503163   T   T   T
  0.4937811403924036  0.0177115761427097  0.6353904363548913   T   T   T
  0.7669491525423737  0.8644067796610173  0.3976208246282127   F   F   F
  0.9194915254237301  0.6440677966101660  0.4162352201503552   F   F   F
  0.8220338983050866  0.4237288135593218  0.4348496156724977   F   F   F
  0.9745762711864430  0.2033898305084776  0.4534640111946402   F   F   F
  0.8759666210974690  0.9885975064768761  0.4648179032180996   T   T   T
  0.7781069070501397  0.7718927683212840  0.4925018635096996   T   T   T
  0.9311637068457062  0.5487669904184286  0.5090164160482149   T   T   T
  0.8323575347003233  0.3321919455581420  0.5279499470703035   T   T   T
  0.9865444698431497  0.1026798124049493  0.5408674176885725   T   T   T
  0.8915333157452704  0.8795240562572199  0.5694036060595477   T   T   T
  0.7952354301114403  0.6665794480453012  0.5849051598787562   T   T   T
  0.9441759902735086  0.4538851379703541  0.6036644999028431   T   T   T
  0.8489222156022219  0.2414930624185707  0.6196418149497275   T   T   T
  0.7511012124956413  0.0246921596611693  0.6311743013007747   T   T   T
  0.3748169365502599  0.9866613790938974  0.6865223139928579   T   T   T
  0.3785304851192533  0.9566001736128787  0.7275107654560656   T   T   T
  0.5560856884186853  0.5513203567607285  0.6489525437967103   T   T   T
  0.5535864778680069  0.5696481928936667  0.6914524219469571   T   T   T
  0.5956837470726848  0.2492251161173222  0.6942514656909634   T   T   T
  0.6660775754543025  0.2894698047502945  0.7029212718671994   T   T   T
 
  0.00000000E+00  0.00000000E+00  0.00000000E+00
  0.00000000E+00  0.00000000E+00  0.00000000E+00
  0.00000000E+00  0.00000000E+00  0.00000000E+00
  0.00000000E+00  0.00000000E+00  0.00000000E+00
  0.00000000E+00  0.00000000E+00  0.00000000E+00
  0.00000000E+00  0.00000000E+00  0.00000000E+00
  0.00000000E+00  0.00000000E+00  0.00000000E+00
  0.00000000E+00  0.00000000E+00  0.00000000E+00
  0.00000000E+00  0.00000000E+00  0.00000000E+00
  0.00000000E+00  0.00000000E+00  0.00000000E+00
  0.00000000E+00  0.00000000E+00  0.00000000E+00
  0.00000000E+00  0.00000000E+00  0.00000000E+00
  0.00000000E+00  0.00000000E+00  0.00000000E+00
  0.00000000E+00  0.00000000E+00  0.00000000E+00
  0.00000000E+00  0.00000000E+00  0.00000000E+00
  0.00000000E+00  0.00000000E+00  0.00000000E+00
  0.00000000E+00  0.00000000E+00  0.00000000E+00
  0.00000000E+00  0.00000000E+00  0.00000000E+00
  0.00000000E+00  0.00000000E+00  0.00000000E+00
  0.00000000E+00  0.00000000E+00  0.00000000E+00
  0.00000000E+00  0.00000000E+00  0.00000000E+00
  0.00000000E+00  0.00000000E+00  0.00000000E+00
  0.00000000E+00  0.00000000E+00  0.00000000E+00
  0.00000000E+00  0.00000000E+00  0.00000000E+00
  0.00000000E+00  0.00000000E+00  0.00000000E+00
  0.00000000E+00  0.00000000E+00  0.00000000E+00
  0.00000000E+00  0.00000000E+00  0.00000000E+00
  0.00000000E+00  0.00000000E+00  0.00000000E+00
  0.00000000E+00  0.00000000E+00  0.00000000E+00
  0.00000000E+00  0.00000000E+00  0.00000000E+00
  0.00000000E+00  0.00000000E+00  0.00000000E+00
  0.00000000E+00  0.00000000E+00  0.00000000E+00
  0.00000000E+00  0.00000000E+00  0.00000000E+00
  0.00000000E+00  0.00000000E+00  0.00000000E+00
  0.00000000E+00  0.00000000E+00  0.00000000E+00
  0.00000000E+00  0.00000000E+00  0.00000000E+00
  0.00000000E+00  0.00000000E+00  0.00000000E+00
  0.00000000E+00  0.00000000E+00  0.00000000E+00
  0.00000000E+00  0.00000000E+00  0.00000000E+00
  0.00000000E+00  0.00000000E+00  0.00000000E+00
  0.00000000E+00  0.00000000E+00  0.00000000E+00
  0.00000000E+00  0.00000000E+00  0.00000000E+00
  0.00000000E+00  0.00000000E+00  0.00000000E+00
  0.00000000E+00  0.00000000E+00  0.00000000E+00
  0.00000000E+00  0.00000000E+00  0.00000000E+00
  0.00000000E+00  0.00000000E+00  0.00000000E+00
  0.00000000E+00  0.00000000E+00  0.00000000E+00
  0.00000000E+00  0.00000000E+00  0.00000000E+00
  0.00000000E+00  0.00000000E+00  0.00000000E+00
  0.00000000E+00  0.00000000E+00  0.00000000E+00
  0.00000000E+00  0.00000000E+00  0.00000000E+00
  0.00000000E+00  0.00000000E+00  0.00000000E+00
  0.00000000E+00  0.00000000E+00  0.00000000E+00
  0.00000000E+00  0.00000000E+00  0.00000000E+00
  0.00000000E+00  0.00000000E+00  0.00000000E+00
  0.00000000E+00  0.00000000E+00  0.00000000E+00
  0.00000000E+00  0.00000000E+00  0.00000000E+00
  0.00000000E+00  0.00000000E+00  0.00000000E+00
  0.00000000E+00  0.00000000E+00  0.00000000E+00
  0.00000000E+00  0.00000000E+00  0.00000000E+00
  0.00000000E+00  0.00000000E+00  0.00000000E+00
  0.00000000E+00  0.00000000E+00  0.00000000E+00
