Pt  C  O  C  O  H                       
    1.000000000000000     
    11.2213408561008308    0.0000000000000000    0.0000000000000000
     1.4026676070126025   10.7740943252779040    0.0000000000000000
     0.0000000000000000    0.0000000000000000   27.7475611781839042
   Pt   C    O    C    O    H 
    56     1     1     1     2     1
Selective dynamics
Direct
  0.0169491525423737  0.8644067796610173  0.3976208246282127   F   F   F
  0.1694915254237301  0.6440677966101660  0.4162352201503552   F   F   F
  0.0720338983050866  0.4237288135593218  0.4348496156724977   F   F   F
  0.2245762711864430  0.2033898305084776  0.4534640111946402   F   F   F
  0.1262392595664762  0.9880706461321958  0.4646391336521523   T   T   T
  0.0284307648747084  0.7695333017014454  0.4929636269937425   T   T   T
  0.1812122739256019  0.5531254656981728  0.5123384287516419   T   T   T
  0.0815392526884852  0.3346411740306866  0.5279076812802466   T   T   T
  0.2358728152445345  0.1061532041447397  0.5405252866838866   T   T   T
  0.1409127827883211  0.8840234758081560  0.5666901658165898   T   T   T
  0.0464394223328848  0.6730029413919215  0.5915086689239403   T   T   T
  0.1932542055644801  0.4517874175000072  0.6040989059092594   T   T   T
  0.0930602335798565  0.2408917314837271  0.6195371481321313   T   T   T
  0.9980109406477590  0.0225717855876454  0.6306200749509984   T   T   T
  0.2669491525423737  0.8644067796610173  0.3976208246282127   F   F   F
  0.4194915254237301  0.6440677966101660  0.4162352201503552   F   F   F
  0.3220338983050866  0.4237288135593218  0.4348496156724977   F   F   F
  0.4745762711864430  0.2033898305084776  0.4534640111946402   F   F   F
  0.3765437232257561  0.9874782219652127  0.4646861503321864   T   T   T
  0.2787525794798996  0.7700550337752911  0.4928551347272122   T   T   T
  0.4309713878034101  0.5506840813677727  0.5099901047527814   T   T   T
  0.3331728122455714  0.3318685538708817  0.5269351267507942   T   T   T
  0.4883537893325040  0.1049886896663020  0.5404529945729927   T   T   T
  0.3894895872298347  0.8862872422144414  0.5663620243702780   T   T   T
  0.2933676447586350  0.6675701648590173  0.5915207299918221   T   T   T
  0.4439602034163768  0.4479959984659732  0.6040460050642628   T   T   T
  0.3437320511954262  0.2407595265935481  0.6194602297672496   T   T   T
  0.2467012409172312  0.0281620351897381  0.6306399393896894   T   T   T
  0.5169491525423737  0.8644067796610173  0.3976208246282127   F   F   F
  0.6694915254237301  0.6440677966101660  0.4162352201503552   F   F   F
  0.5720338983050866  0.4237288135593218  0.4348496156724977   F   F   F
  0.7245762711864430  0.2033898305084776  0.4534640111946402   F   F   F
  0.6267866957310930  0.9869433402162693  0.4651838892178467   T   T   T
  0.5287313858709334  0.7696856038658256  0.4930643058514881   T   T   T
  0.6796706242425585  0.5524558792937663  0.5117384749445115   T   T   T
  0.5849639253526457  0.3328825660869519  0.5280799318732289   T   T   T
  0.7375391939709830  0.1044134286600741  0.5406325923754490   T   T   T
  0.6394068867412630  0.8801841566076766  0.5689662466419428   T   T   T
  0.5372486149767071  0.6694843745411171  0.5923720743899495   T   T   T
  0.6918699549187335  0.4530604297410122  0.6083447234559363   T   T   T
  0.5967180610715989  0.2403939457494176  0.6200210587953447   T   T   T
  0.4960195809823604  0.0287090896991756  0.6306938626150221   T   T   T
  0.7669491525423737  0.8644067796610173  0.3976208246282127   F   F   F
  0.9194915254237301  0.6440677966101660  0.4162352201503552   F   F   F
  0.8220338983050866  0.4237288135593218  0.4348496156724977   F   F   F
  0.9745762711864430  0.2033898305084776  0.4534640111946402   F   F   F
  0.8767076103861406  0.9876175733760051  0.4648032000729972   T   T   T
  0.7783676884037219  0.7690152528804329  0.4932596196396173   T   T   T
  0.9310799309961747  0.5530865481411075  0.5121289577090400   T   T   T
  0.8331677235584476  0.3352021009632301  0.5276439047068333   T   T   T
  0.9860596146183640  0.1059451989188807  0.5408059905401640   T   T   T
  0.8885257462880966  0.8808893115938601  0.5672515059355415   T   T   T
  0.7879394070691028  0.6696631406575102  0.5903083023314806   T   T   T
  0.9448136754885492  0.4553741145884811  0.6083083570544839   T   T   T
  0.8462998015817305  0.2369995316203072  0.6188727804929243   T   T   T
  0.7459410424104844  0.0258748226501068  0.6307196440023196   T   T   T
  0.4115778745845566  0.6872058406694669  0.6447267250839426   T   T   T
  0.4070574117700110  0.7094028805920157  0.6865456119679660   T   T   T
  0.8061351949234850  0.5499075921732803  0.6504928830034643   T   T   T
  0.8027018158578224  0.5712672845115571  0.6927282829693636   T   T   T
  0.0318054532873621  0.7335649970155975  0.6595813740855196   T   T   T
  0.1111606465481962  0.7118975201395488  0.6743283660877452   T   T   T
 
  0.00000000E+00  0.00000000E+00  0.00000000E+00
  0.00000000E+00  0.00000000E+00  0.00000000E+00
  0.00000000E+00  0.00000000E+00  0.00000000E+00
  0.00000000E+00  0.00000000E+00  0.00000000E+00
  0.00000000E+00  0.00000000E+00  0.00000000E+00
  0.00000000E+00  0.00000000E+00  0.00000000E+00
  0.00000000E+00  0.00000000E+00  0.00000000E+00
  0.00000000E+00  0.00000000E+00  0.00000000E+00
  0.00000000E+00  0.00000000E+00  0.00000000E+00
  0.00000000E+00  0.00000000E+00  0.00000000E+00
  0.00000000E+00  0.00000000E+00  0.00000000E+00
  0.00000000E+00  0.00000000E+00  0.00000000E+00
  0.00000000E+00  0.00000000E+00  0.00000000E+00
  0.00000000E+00  0.00000000E+00  0.00000000E+00
  0.00000000E+00  0.00000000E+00  0.00000000E+00
  0.00000000E+00  0.00000000E+00  0.00000000E+00
  0.00000000E+00  0.00000000E+00  0.00000000E+00
  0.00000000E+00  0.00000000E+00  0.00000000E+00
  0.00000000E+00  0.00000000E+00  0.00000000E+00
  0.00000000E+00  0.00000000E+00  0.00000000E+00
  0.00000000E+00  0.00000000E+00  0.00000000E+00
  0.00000000E+00  0.00000000E+00  0.00000000E+00
  0.00000000E+00  0.00000000E+00  0.00000000E+00
  0.00000000E+00  0.00000000E+00  0.00000000E+00
  0.00000000E+00  0.00000000E+00  0.00000000E+00
  0.00000000E+00  0.00000000E+00  0.00000000E+00
  0.00000000E+00  0.00000000E+00  0.00000000E+00
  0.00000000E+00  0.00000000E+00  0.00000000E+00
  0.00000000E+00  0.00000000E+00  0.00000000E+00
  0.00000000E+00  0.00000000E+00  0.00000000E+00
  0.00000000E+00  0.00000000E+00  0.00000000E+00
  0.00000000E+00  0.00000000E+00  0.00000000E+00
  0.00000000E+00  0.00000000E+00  0.00000000E+00
  0.00000000E+00  0.00000000E+00  0.00000000E+00
  0.00000000E+00  0.00000000E+00  0.00000000E+00
  0.00000000E+00  0.00000000E+00  0.00000000E+00
  0.00000000E+00  0.00000000E+00  0.00000000E+00
  0.00000000E+00  0.00000000E+00  0.00000000E+00
  0.00000000E+00  0.00000000E+00  0.00000000E+00
  0.00000000E+00  0.00000000E+00  0.00000000E+00
  0.00000000E+00  0.00000000E+00  0.00000000E+00
  0.00000000E+00  0.00000000E+00  0.00000000E+00
  0.00000000E+00  0.00000000E+00  0.00000000E+00
  0.00000000E+00  0.00000000E+00  0.00000000E+00
  0.00000000E+00  0.00000000E+00  0.00000000E+00
  0.00000000E+00  0.00000000E+00  0.00000000E+00
  0.00000000E+00  0.00000000E+00  0.00000000E+00
  0.00000000E+00  0.00000000E+00  0.00000000E+00
  0.00000000E+00  0.00000000E+00  0.00000000E+00
  0.00000000E+00  0.00000000E+00  0.00000000E+00
  0.00000000E+00  0.00000000E+00  0.00000000E+00
  0.00000000E+00  0.00000000E+00  0.00000000E+00
  0.00000000E+00  0.00000000E+00  0.00000000E+00
  0.00000000E+00  0.00000000E+00  0.00000000E+00
  0.00000000E+00  0.00000000E+00  0.00000000E+00
  0.00000000E+00  0.00000000E+00  0.00000000E+00
  0.00000000E+00  0.00000000E+00  0.00000000E+00
  0.00000000E+00  0.00000000E+00  0.00000000E+00
  0.00000000E+00  0.00000000E+00  0.00000000E+00
  0.00000000E+00  0.00000000E+00  0.00000000E+00
  0.00000000E+00  0.00000000E+00  0.00000000E+00
  0.00000000E+00  0.00000000E+00  0.00000000E+00
