Pt  C  O  C  O  H                       
    1.000000000000000     
    11.2213408561008308    0.0000000000000000    0.0000000000000000
     1.4026676070126025   10.7740943252779040    0.0000000000000000
     0.0000000000000000    0.0000000000000000   27.7475611781839042
   Pt   C    O    C    O    H 
    56     1     1     1     2     1
Selective dynamics
Direct
  0.0169491525423737  0.8644067796610173  0.3976208246282127   F   F   F
  0.1694915254237301  0.6440677966101660  0.4162352201503552   F   F   F
  0.0720338983050866  0.4237288135593218  0.4348496156724977   F   F   F
  0.2245762711864430  0.2033898305084776  0.4534640111946402   F   F   F
  0.1273361688296510  0.9882669377092002  0.4645247709125878   T   T   T
  0.0269425102010815  0.7661405524537501  0.4920237957668487   T   T   T
  0.1843991477978321  0.5522267487526914  0.5129152090687643   T   T   T
  0.0869936922756628  0.3290095243677272  0.5278091052191058   T   T   T
  0.2375234109648076  0.1025988718898448  0.5424568404951706   T   T   T
  0.1328738272948024  0.8804713367644057  0.5634589996784982   T   T   T
  0.0417180768816239  0.6595613469615359  0.5876508939841777   T   T   T
  0.1950516032734720  0.4489960610443087  0.6048311808647927   T   T   T
  0.1010156965110892  0.2245605206338354  0.6191196187275950   T   T   T
  0.9908738893035842  0.0194901214332021  0.6305973331124943   T   T   T
  0.2669491525423737  0.8644067796610173  0.3976208246282127   F   F   F
  0.4194915254237301  0.6440677966101660  0.4162352201503552   F   F   F
  0.3220338983050866  0.4237288135593218  0.4348496156724977   F   F   F
  0.4745762711864430  0.2033898305084776  0.4534640111946402   F   F   F
  0.3757115565553638  0.9880431874847847  0.4644644679269316   T   T   T
  0.2783536726032482  0.7684243533189883  0.4928449081463897   T   T   T
  0.4274989996575388  0.5521573182869043  0.5133705975621010   T   T   T
  0.3339970602838791  0.3299745688951550  0.5277471291439699   T   T   T
  0.4890186653041514  0.1010776077036024  0.5406168527971342   T   T   T
  0.3952259780480332  0.8810046681813276  0.5634520007075317   T   T   T
  0.2864917793870527  0.6851951252730415  0.6022623959555581   T   T   T
  0.4378880777948751  0.4528294123649729  0.6046403437067218   T   T   T
  0.3427542133319301  0.2264659744140455  0.6191049295900587   T   T   T
  0.2495744052787373 -0.0069241711429712  0.6323978179211700   T   T   T
  0.5169491525423737  0.8644067796610173  0.3976208246282127   F   F   F
  0.6694915254237301  0.6440677966101660  0.4162352201503552   F   F   F
  0.5720338983050866  0.4237288135593218  0.4348496156724977   F   F   F
  0.7245762711864430  0.2033898305084776  0.4534640111946402   F   F   F
  0.6267798210768070  0.9858706784637666  0.4651485808532784   T   T   T
  0.5301624426710413  0.7657263212955997  0.4927031999291012   T   T   T
  0.6792305432566413  0.5461808057384112  0.5103885485645343   T   T   T
  0.5807105097918294  0.3305671253384898  0.5280998102765535   T   T   T
  0.7373178310976664  0.1006980290043182  0.5402989021834379   T   T   T
  0.6426151735443916  0.8717320619717571  0.5689718665848176   T   T   T
  0.5425914714308568  0.6617920516177979  0.5923059630045904   T   T   T
  0.6940567792435505  0.4456900010786294  0.6045881701379193   T   T   T
  0.5914417401303023  0.2374883280370997  0.6197075461428191   T   T   T
  0.5021163846249254  0.0199512735040383  0.6307099473348429   T   T   T
  0.7669491525423737  0.8644067796610173  0.3976208246282127   F   F   F
  0.9194915254237301  0.6440677966101660  0.4162352201503552   F   F   F
  0.8220338983050866  0.4237288135593218  0.4348496156724977   F   F   F
  0.9745762711864430  0.2033898305084776  0.4534640111946402   F   F   F
  0.8770789670386410  0.9860012487317773  0.4652626146099069   T   T   T
  0.7782992020097310  0.7660465940460978  0.4925195086994120   T   T   T
  0.9340909065913983  0.5447570834737377  0.5096988269834941   T   T   T
  0.8338303494459479  0.3294496255230505  0.5275473988881348   T   T   T
  0.9858817018619105  0.1014333049636672  0.5406369285106671   T   T   T
  0.8877740081217252  0.8717726729223653  0.5688415290048335   T   T   T
  0.7940403578173335  0.6549895140676271  0.5859816110014509   T   T   T
  0.9473203839165651  0.4445107204628875  0.6041314530932074   T   T   T
  0.8456692877457429  0.2351723340070688  0.6191724847926103   T   T   T
  0.7454916219283906  0.0230985109189282  0.6305239815786539   T   T   T
  0.4992912137350076  0.8720317389346409  0.7745845050888951   T   T   T
  0.5136074758536492  0.9317333707724279  0.7416141840090156   T   T   T
  0.0260948719146602  0.8749729726035052  0.7746266061053972   T   T   T
  0.0077536888385994  0.9225675457694910  0.7381521267413591   T   T   T
  0.2714303466631739  0.8159946142670607  0.6532794886486651   T   T   T
  0.5417238587715710  0.6827744282230552  0.6478028481645510   T   T   T
 
  0.00000000E+00  0.00000000E+00  0.00000000E+00
  0.00000000E+00  0.00000000E+00  0.00000000E+00
  0.00000000E+00  0.00000000E+00  0.00000000E+00
  0.00000000E+00  0.00000000E+00  0.00000000E+00
  0.00000000E+00  0.00000000E+00  0.00000000E+00
  0.00000000E+00  0.00000000E+00  0.00000000E+00
  0.00000000E+00  0.00000000E+00  0.00000000E+00
  0.00000000E+00  0.00000000E+00  0.00000000E+00
  0.00000000E+00  0.00000000E+00  0.00000000E+00
  0.00000000E+00  0.00000000E+00  0.00000000E+00
  0.00000000E+00  0.00000000E+00  0.00000000E+00
  0.00000000E+00  0.00000000E+00  0.00000000E+00
  0.00000000E+00  0.00000000E+00  0.00000000E+00
  0.00000000E+00  0.00000000E+00  0.00000000E+00
  0.00000000E+00  0.00000000E+00  0.00000000E+00
  0.00000000E+00  0.00000000E+00  0.00000000E+00
  0.00000000E+00  0.00000000E+00  0.00000000E+00
  0.00000000E+00  0.00000000E+00  0.00000000E+00
  0.00000000E+00  0.00000000E+00  0.00000000E+00
  0.00000000E+00  0.00000000E+00  0.00000000E+00
  0.00000000E+00  0.00000000E+00  0.00000000E+00
  0.00000000E+00  0.00000000E+00  0.00000000E+00
  0.00000000E+00  0.00000000E+00  0.00000000E+00
  0.00000000E+00  0.00000000E+00  0.00000000E+00
  0.00000000E+00  0.00000000E+00  0.00000000E+00
  0.00000000E+00  0.00000000E+00  0.00000000E+00
  0.00000000E+00  0.00000000E+00  0.00000000E+00
  0.00000000E+00  0.00000000E+00  0.00000000E+00
  0.00000000E+00  0.00000000E+00  0.00000000E+00
  0.00000000E+00  0.00000000E+00  0.00000000E+00
  0.00000000E+00  0.00000000E+00  0.00000000E+00
  0.00000000E+00  0.00000000E+00  0.00000000E+00
  0.00000000E+00  0.00000000E+00  0.00000000E+00
  0.00000000E+00  0.00000000E+00  0.00000000E+00
  0.00000000E+00  0.00000000E+00  0.00000000E+00
  0.00000000E+00  0.00000000E+00  0.00000000E+00
  0.00000000E+00  0.00000000E+00  0.00000000E+00
  0.00000000E+00  0.00000000E+00  0.00000000E+00
  0.00000000E+00  0.00000000E+00  0.00000000E+00
  0.00000000E+00  0.00000000E+00  0.00000000E+00
  0.00000000E+00  0.00000000E+00  0.00000000E+00
  0.00000000E+00  0.00000000E+00  0.00000000E+00
  0.00000000E+00  0.00000000E+00  0.00000000E+00
  0.00000000E+00  0.00000000E+00  0.00000000E+00
  0.00000000E+00  0.00000000E+00  0.00000000E+00
  0.00000000E+00  0.00000000E+00  0.00000000E+00
  0.00000000E+00  0.00000000E+00  0.00000000E+00
  0.00000000E+00  0.00000000E+00  0.00000000E+00
  0.00000000E+00  0.00000000E+00  0.00000000E+00
  0.00000000E+00  0.00000000E+00  0.00000000E+00
  0.00000000E+00  0.00000000E+00  0.00000000E+00
  0.00000000E+00  0.00000000E+00  0.00000000E+00
  0.00000000E+00  0.00000000E+00  0.00000000E+00
  0.00000000E+00  0.00000000E+00  0.00000000E+00
  0.00000000E+00  0.00000000E+00  0.00000000E+00
  0.00000000E+00  0.00000000E+00  0.00000000E+00
  0.00000000E+00  0.00000000E+00  0.00000000E+00
  0.00000000E+00  0.00000000E+00  0.00000000E+00
  0.00000000E+00  0.00000000E+00  0.00000000E+00
  0.00000000E+00  0.00000000E+00  0.00000000E+00
  0.00000000E+00  0.00000000E+00  0.00000000E+00
  0.00000000E+00  0.00000000E+00  0.00000000E+00
