Pt  C  O  C  O  H                       
    1.000000000000000     
    11.2213408561008308    0.0000000000000000    0.0000000000000000
     1.4026676070126025   10.7740943252779040    0.0000000000000000
     0.0000000000000000    0.0000000000000000   27.7475611781839042
   Pt   C    O    C    O    H 
    56     1     1     1     2     1
Selective dynamics
Direct
  0.0169491525423737  0.8644067796610173  0.3976208246282127   F   F   F
  0.1694915254237301  0.6440677966101660  0.4162352201503552   F   F   F
  0.0720338983050866  0.4237288135593218  0.4348496156724977   F   F   F
  0.2245762711864430  0.2033898305084776  0.4534640111946402   F   F   F
  0.1256953131337576  0.9880992955269688  0.4649830657617430   T   T   T
  0.0277544699040926  0.7699523379083931  0.4933002099487918   T   T   T
  0.1791931875679214  0.5509997027216561  0.5102773061410144   T   T   T
  0.0848614858549080  0.3329155102705620  0.5279322424011457   T   T   T
  0.2380564934358816  0.1044807346639142  0.5403972190033902   T   T   T
  0.1386540760407528  0.8825092839861519  0.5682157107317198   T   T   T
  0.0406509936639627  0.6725866905952176  0.5907234669959633   T   T   T
  0.1936048602300064  0.4585199550864644  0.6089084811147537   T   T   T
  0.0999778589422293  0.2398721439632631  0.6192051699245824   T   T   T
  0.9978362070693101  0.0288504424671557  0.6304484836352465   T   T   T
  0.2669491525423737  0.8644067796610173  0.3976208246282127   F   F   F
  0.4194915254237301  0.6440677966101660  0.4162352201503552   F   F   F
  0.3220338983050866  0.4237288135593218  0.4348496156724977   F   F   F
  0.4745762711864430  0.2033898305084776  0.4534640111946402   F   F   F
  0.3768857509681796  0.9877962401341995  0.4648669902273877   T   T   T
  0.2781093437937652  0.7712070371255350  0.4920472252913231   T   T   T
  0.4310636561710936  0.5512844420223372  0.5100717371946415   T   T   T
  0.3330915431847677  0.3359387176345502  0.5292232880629554   T   T   T
  0.4869335274550891  0.1044538904416701  0.5405478531586548   T   T   T
  0.3906363993939686  0.8817032159187296  0.5687024938626032   T   T   T
  0.2898029923156021  0.6702120046691581  0.5839807825631581   T   T   T
  0.4406873768565049  0.4596107353872569  0.6099544404581329   T   T   T
  0.3446104294685448  0.2454684230695781  0.6203085728872906   T   T   T
  0.2496344912090343  0.0277888654051989  0.6306156713515010   T   T   T
  0.5169491525423737  0.8644067796610173  0.3976208246282127   F   F   F
  0.6694915254237301  0.6440677966101660  0.4162352201503552   F   F   F
  0.5720338983050866  0.4237288135593218  0.4348496156724977   F   F   F
  0.7245762711864430  0.2033898305084776  0.4534640111946402   F   F   F
  0.6265771296943929  0.9875935626624287  0.4648754182286424   T   T   T
  0.5280864702370063  0.7705019512547115  0.4938874791757796   T   T   T
  0.6804605849081358  0.5516144855341008  0.5093073210297512   T   T   T
  0.5809658598403546  0.3329112317993064  0.5278148437675348   T   T   T
  0.7364067388032672  0.1064055165107264  0.5406377813798834   T   T   T
  0.6391707385944136  0.8802735404475684  0.5688379329519152   T   T   T
  0.5414969546627266  0.6697872454456413  0.5928700385744149   T   T   T
  0.6986661084987968  0.4522188255814148  0.6015280049886392   T   T   T
  0.5918931200760364  0.2438760464966415  0.6195793233417877   T   T   T
  0.4961754837343408  0.0303644488135661  0.6309299841857395   T   T   T
  0.7669491525423737  0.8644067796610173  0.3976208246282127   F   F   F
  0.9194915254237301  0.6440677966101660  0.4162352201503552   F   F   F
  0.8220338983050866  0.4237288135593218  0.4348496156724977   F   F   F
  0.9745762711864430  0.2033898305084776  0.4534640111946402   F   F   F
  0.8766923295640955  0.9873471323213117  0.4654035720148482   T   T   T
  0.7783219184395626  0.7713742231424502  0.4925090537914671   T   T   T
  0.9305647592614189  0.5494301557815714  0.5103272738095435   T   T   T
  0.8348400312388966  0.3299035427626812  0.5305226280348753   T   T   T
  0.9873661192548484  0.1056850404936492  0.5412825616087340   T   T   T
  0.8890782723205273  0.8813870347596153  0.5692682445904385   T   T   T
  0.7901540280015669  0.6681168517736777  0.5856414757685088   T   T   T
  0.9436859479967034  0.4574499805467199  0.6079721917182770   T   T   T
  0.8472209648768139  0.2453170729481303  0.6250759334268484   T   T   T
  0.7438341905187404  0.0295682117772904  0.6296393189276221   T   T   T
  0.4916688035491710  0.5906106066835128  0.6539774412256792   T   T   T
  0.4898591604470361  0.6127810072295885  0.6956890422623138   T   T   T
  0.0548710451457181  0.5552207282028156  0.6507954832664601   T   T   T
  0.0512156804884387  0.5760705762723125  0.6931390772233137   T   T   T
  0.8492321371070323  0.2404433510154324  0.6967643437250048   T   T   T
  0.9109274744279131  0.2916131191204733  0.7066592302215231   T   T   T
 
  0.00000000E+00  0.00000000E+00  0.00000000E+00
  0.00000000E+00  0.00000000E+00  0.00000000E+00
  0.00000000E+00  0.00000000E+00  0.00000000E+00
  0.00000000E+00  0.00000000E+00  0.00000000E+00
  0.00000000E+00  0.00000000E+00  0.00000000E+00
  0.00000000E+00  0.00000000E+00  0.00000000E+00
  0.00000000E+00  0.00000000E+00  0.00000000E+00
  0.00000000E+00  0.00000000E+00  0.00000000E+00
  0.00000000E+00  0.00000000E+00  0.00000000E+00
  0.00000000E+00  0.00000000E+00  0.00000000E+00
  0.00000000E+00  0.00000000E+00  0.00000000E+00
  0.00000000E+00  0.00000000E+00  0.00000000E+00
  0.00000000E+00  0.00000000E+00  0.00000000E+00
  0.00000000E+00  0.00000000E+00  0.00000000E+00
  0.00000000E+00  0.00000000E+00  0.00000000E+00
  0.00000000E+00  0.00000000E+00  0.00000000E+00
  0.00000000E+00  0.00000000E+00  0.00000000E+00
  0.00000000E+00  0.00000000E+00  0.00000000E+00
  0.00000000E+00  0.00000000E+00  0.00000000E+00
  0.00000000E+00  0.00000000E+00  0.00000000E+00
  0.00000000E+00  0.00000000E+00  0.00000000E+00
  0.00000000E+00  0.00000000E+00  0.00000000E+00
  0.00000000E+00  0.00000000E+00  0.00000000E+00
  0.00000000E+00  0.00000000E+00  0.00000000E+00
  0.00000000E+00  0.00000000E+00  0.00000000E+00
  0.00000000E+00  0.00000000E+00  0.00000000E+00
  0.00000000E+00  0.00000000E+00  0.00000000E+00
  0.00000000E+00  0.00000000E+00  0.00000000E+00
  0.00000000E+00  0.00000000E+00  0.00000000E+00
  0.00000000E+00  0.00000000E+00  0.00000000E+00
  0.00000000E+00  0.00000000E+00  0.00000000E+00
  0.00000000E+00  0.00000000E+00  0.00000000E+00
  0.00000000E+00  0.00000000E+00  0.00000000E+00
  0.00000000E+00  0.00000000E+00  0.00000000E+00
  0.00000000E+00  0.00000000E+00  0.00000000E+00
  0.00000000E+00  0.00000000E+00  0.00000000E+00
  0.00000000E+00  0.00000000E+00  0.00000000E+00
  0.00000000E+00  0.00000000E+00  0.00000000E+00
  0.00000000E+00  0.00000000E+00  0.00000000E+00
  0.00000000E+00  0.00000000E+00  0.00000000E+00
  0.00000000E+00  0.00000000E+00  0.00000000E+00
  0.00000000E+00  0.00000000E+00  0.00000000E+00
  0.00000000E+00  0.00000000E+00  0.00000000E+00
  0.00000000E+00  0.00000000E+00  0.00000000E+00
  0.00000000E+00  0.00000000E+00  0.00000000E+00
  0.00000000E+00  0.00000000E+00  0.00000000E+00
  0.00000000E+00  0.00000000E+00  0.00000000E+00
  0.00000000E+00  0.00000000E+00  0.00000000E+00
  0.00000000E+00  0.00000000E+00  0.00000000E+00
  0.00000000E+00  0.00000000E+00  0.00000000E+00
  0.00000000E+00  0.00000000E+00  0.00000000E+00
  0.00000000E+00  0.00000000E+00  0.00000000E+00
  0.00000000E+00  0.00000000E+00  0.00000000E+00
  0.00000000E+00  0.00000000E+00  0.00000000E+00
  0.00000000E+00  0.00000000E+00  0.00000000E+00
  0.00000000E+00  0.00000000E+00  0.00000000E+00
  0.00000000E+00  0.00000000E+00  0.00000000E+00
  0.00000000E+00  0.00000000E+00  0.00000000E+00
  0.00000000E+00  0.00000000E+00  0.00000000E+00
  0.00000000E+00  0.00000000E+00  0.00000000E+00
  0.00000000E+00  0.00000000E+00  0.00000000E+00
  0.00000000E+00  0.00000000E+00  0.00000000E+00
