Pt  C  O  C  O  H                       
    1.000000000000000     
    11.2213408561008308    0.0000000000000000    0.0000000000000000
     1.4026676070126025   10.7740943252779040    0.0000000000000000
     0.0000000000000000    0.0000000000000000   27.7475611781839042
   Pt   C    O    C    O    H 
    56     1     1     1     2     1
Selective dynamics
Direct
  0.0169491525423737  0.8644067796610173  0.3976208246282127   F   F   F
  0.1694915254237301  0.6440677966101660  0.4162352201503552   F   F   F
  0.0720338983050866  0.4237288135593218  0.4348496156724977   F   F   F
  0.2245762711864430  0.2033898305084776  0.4534640111946402   F   F   F
  0.1274274645142719  0.9868410840980860  0.4647011128011970   T   T   T
  0.0294369467287270  0.7689905281266347  0.4927023430938312   T   T   T
  0.1838999111685404  0.5504186348114466  0.5102680279274451   T   T   T
  0.0837991288172396  0.3300237668079689  0.5278105782593601   T   T   T
  0.2362300288703529  0.1039933410272146  0.5406982373418608   T   T   T
  0.1405517925388951  0.8775913509249088  0.5689203902399546   T   T   T
  0.0445344655334716  0.6624619472367417  0.5865922828118724   T   T   T
  0.1935028307667236  0.4506966741397896  0.6031977749450149   T   T   T
  0.0998632865927284  0.2400287224245578  0.6204696372260998   T   T   T
  0.9981572783973378  0.0284307989041872  0.6311126416031765   T   T   T
  0.2669491525423737  0.8644067796610173  0.3976208246282127   F   F   F
  0.4194915254237301  0.6440677966101660  0.4162352201503552   F   F   F
  0.3220338983050866  0.4237288135593218  0.4348496156724977   F   F   F
  0.4745762711864430  0.2033898305084776  0.4534640111946402   F   F   F
  0.3777440763468888  0.9882763721440523  0.4655969745849692   T   T   T
  0.2807072750606991  0.7709412293433184  0.4934332505484687   T   T   T
  0.4315830398921453  0.5521774092035679  0.5105764923913321   T   T   T
  0.3358917304950009  0.3307062110700469  0.5271816145864402   T   T   T
  0.4885991250477122  0.1030360829231162  0.5440686178078781   T   T   T
  0.3909904048440484  0.8847352074777294  0.5683978409536606   T   T   T
  0.2922448234732105  0.6687616389091401  0.5913354671638740   T   T   T
  0.4442914441631309  0.4527966009962904  0.6076517427702345   T   T   T
  0.3454873285241764  0.2386994489069343  0.6190485425533333   T   T   T
  0.2431242840977428  0.0251881700924394  0.6308528514799303   T   T   T
  0.5169491525423737  0.8644067796610173  0.3976208246282127   F   F   F
  0.6694915254237301  0.6440677966101660  0.4162352201503552   F   F   F
  0.5720338983050866  0.4237288135593218  0.4348496156724977   F   F   F
  0.7245762711864430  0.2033898305084776  0.4534640111946402   F   F   F
  0.6255608219797444  0.9889547632895347  0.4651783245316252   T   T   T
  0.5300606511171505  0.7708274424162705  0.4932168152413162   T   T   T
  0.6805490984454010  0.5500129733764342  0.5107961879809993   T   T   T
  0.5831157284984751  0.3322117775500973  0.5279115900212749   T   T   T
  0.7388467024453164  0.1047264039451252  0.5411953591566653   T   T   T
  0.6424839214345940  0.8806536261518738  0.5691020990632384   T   T   T
  0.5431686864122358  0.6685450136921097  0.5905406498812753   T   T   T
  0.6948212323947224  0.4515885806022434  0.6070986130956637   T   T   T
  0.5923281927532652  0.2350467529629969  0.6188042849248302   T   T   T
  0.5001630437977118  0.0224277513495439  0.6351059082958531   T   T   T
  0.7669491525423737  0.8644067796610173  0.3976208246282127   F   F   F
  0.9194915254237301  0.6440677966101660  0.4162352201503552   F   F   F
  0.8220338983050866  0.4237288135593218  0.4348496156724977   F   F   F
  0.9745762711864430  0.2033898305084776  0.4534640111946402   F   F   F
  0.8764236084970787  0.9872710164750644  0.4652162234633400   T   T   T
  0.7794954827533888  0.7700214489626678  0.4921713321635254   T   T   T
  0.9325838522662507  0.5463135370181283  0.5105519244520015   T   T   T
  0.8335327396866364  0.3303550663447707  0.5284673716412595   T   T   T
  0.9869558913901153  0.1018159708270779  0.5407175488398281   T   T   T
  0.8932052878253189  0.8771863625405524  0.5691272189903539   T   T   T
  0.7923925226501942  0.6652232665253924  0.5846483747456748   T   T   T
  0.9464875844985756  0.4554511522063530  0.6088652721243074   T   T   T
  0.8475625110041531  0.2404913493828814  0.6257312555129849   T   T   T
  0.7543389352250753  0.0262439320777365  0.6309868318206173   T   T   T
  0.4235930683775752  0.6225463048645081  0.6448320019234158   T   T   T
  0.4218758900362656  0.6460962263204169  0.6868426089882781   T   T   T
  0.8250453845917984  0.4096766053994465  0.6618279336842064   T   T   T
  0.8201988166829457  0.4334720276182273  0.7038687062328814   T   T   T
  0.4917194784353041  0.9483826996383670  0.6992367040727209   T   T   T
  0.5664927478782867  0.8948571306401552  0.7066445136444619   T   T   T
 
  0.00000000E+00  0.00000000E+00  0.00000000E+00
  0.00000000E+00  0.00000000E+00  0.00000000E+00
  0.00000000E+00  0.00000000E+00  0.00000000E+00
  0.00000000E+00  0.00000000E+00  0.00000000E+00
  0.00000000E+00  0.00000000E+00  0.00000000E+00
  0.00000000E+00  0.00000000E+00  0.00000000E+00
  0.00000000E+00  0.00000000E+00  0.00000000E+00
  0.00000000E+00  0.00000000E+00  0.00000000E+00
  0.00000000E+00  0.00000000E+00  0.00000000E+00
  0.00000000E+00  0.00000000E+00  0.00000000E+00
  0.00000000E+00  0.00000000E+00  0.00000000E+00
  0.00000000E+00  0.00000000E+00  0.00000000E+00
  0.00000000E+00  0.00000000E+00  0.00000000E+00
  0.00000000E+00  0.00000000E+00  0.00000000E+00
  0.00000000E+00  0.00000000E+00  0.00000000E+00
  0.00000000E+00  0.00000000E+00  0.00000000E+00
  0.00000000E+00  0.00000000E+00  0.00000000E+00
  0.00000000E+00  0.00000000E+00  0.00000000E+00
  0.00000000E+00  0.00000000E+00  0.00000000E+00
  0.00000000E+00  0.00000000E+00  0.00000000E+00
  0.00000000E+00  0.00000000E+00  0.00000000E+00
  0.00000000E+00  0.00000000E+00  0.00000000E+00
  0.00000000E+00  0.00000000E+00  0.00000000E+00
  0.00000000E+00  0.00000000E+00  0.00000000E+00
  0.00000000E+00  0.00000000E+00  0.00000000E+00
  0.00000000E+00  0.00000000E+00  0.00000000E+00
  0.00000000E+00  0.00000000E+00  0.00000000E+00
  0.00000000E+00  0.00000000E+00  0.00000000E+00
  0.00000000E+00  0.00000000E+00  0.00000000E+00
  0.00000000E+00  0.00000000E+00  0.00000000E+00
  0.00000000E+00  0.00000000E+00  0.00000000E+00
  0.00000000E+00  0.00000000E+00  0.00000000E+00
  0.00000000E+00  0.00000000E+00  0.00000000E+00
  0.00000000E+00  0.00000000E+00  0.00000000E+00
  0.00000000E+00  0.00000000E+00  0.00000000E+00
  0.00000000E+00  0.00000000E+00  0.00000000E+00
  0.00000000E+00  0.00000000E+00  0.00000000E+00
  0.00000000E+00  0.00000000E+00  0.00000000E+00
  0.00000000E+00  0.00000000E+00  0.00000000E+00
  0.00000000E+00  0.00000000E+00  0.00000000E+00
  0.00000000E+00  0.00000000E+00  0.00000000E+00
  0.00000000E+00  0.00000000E+00  0.00000000E+00
  0.00000000E+00  0.00000000E+00  0.00000000E+00
  0.00000000E+00  0.00000000E+00  0.00000000E+00
  0.00000000E+00  0.00000000E+00  0.00000000E+00
  0.00000000E+00  0.00000000E+00  0.00000000E+00
  0.00000000E+00  0.00000000E+00  0.00000000E+00
  0.00000000E+00  0.00000000E+00  0.00000000E+00
  0.00000000E+00  0.00000000E+00  0.00000000E+00
  0.00000000E+00  0.00000000E+00  0.00000000E+00
  0.00000000E+00  0.00000000E+00  0.00000000E+00
  0.00000000E+00  0.00000000E+00  0.00000000E+00
  0.00000000E+00  0.00000000E+00  0.00000000E+00
  0.00000000E+00  0.00000000E+00  0.00000000E+00
  0.00000000E+00  0.00000000E+00  0.00000000E+00
  0.00000000E+00  0.00000000E+00  0.00000000E+00
  0.00000000E+00  0.00000000E+00  0.00000000E+00
  0.00000000E+00  0.00000000E+00  0.00000000E+00
  0.00000000E+00  0.00000000E+00  0.00000000E+00
  0.00000000E+00  0.00000000E+00  0.00000000E+00
  0.00000000E+00  0.00000000E+00  0.00000000E+00
  0.00000000E+00  0.00000000E+00  0.00000000E+00
