Pt  C  O  C  O  H                       
    1.000000000000000     
    11.2213408561008308    0.0000000000000000    0.0000000000000000
     1.4026676070126025   10.7740943252779040    0.0000000000000000
     0.0000000000000000    0.0000000000000000   27.7475611781839042
   Pt   C    O    C    O    H 
    56     1     1     1     2     1
Selective dynamics
Direct
  0.0169491525423737  0.8644067796610173  0.3976208246282127   F   F   F
  0.1694915254237301  0.6440677966101660  0.4162352201503552   F   F   F
  0.0720338983050866  0.4237288135593218  0.4348496156724977   F   F   F
  0.2245762711864430  0.2033898305084776  0.4534640111946402   F   F   F
  0.1262131022373503  0.9895800421615305  0.4638968386648485   T   T   T
  0.0295414012869888  0.7706807461384922  0.4930013303300134   T   T   T
  0.1811576011406748  0.5506525277316237  0.5097876208829993   T   T   T
  0.0836713063616568  0.3316823110448853  0.5275558910626197   T   T   T
  0.2398166859926319  0.1073776767845148  0.5409661239326070   T   T   T
  0.1418275293635800  0.8861730203076729  0.5663596595685131   T   T   T
  0.0388682263801036  0.6758346514961086  0.5897129911199044   T   T   T
  0.1873096371078365  0.4595934694323498  0.6021791838502957   T   T   T
  0.0908108498678696  0.2470277868469221  0.6211035940866538   T   T   T
  0.9991233278733663  0.0282323168457729  0.6308143219002106   T   T   T
  0.2669491525423737  0.8644067796610173  0.3976208246282127   F   F   F
  0.4194915254237301  0.6440677966101660  0.4162352201503552   F   F   F
  0.3220338983050866  0.4237288135593218  0.4348496156724977   F   F   F
  0.4745762711864430  0.2033898305084776  0.4534640111946402   F   F   F
  0.3768746141870097  0.9885171402443224  0.4645072591882227   T   T   T
  0.2794417473811868  0.7706875734532471  0.4919575951585424   T   T   T
  0.4331175012593294  0.5440885811204010  0.5114224671307791   T   T   T
  0.3343990552013976  0.3298949752528351  0.5293255115500618   T   T   T
  0.4873833467673591  0.1044470230587718  0.5417133102103409   T   T   T
  0.3918909452318026  0.8825159730092033  0.5696390709109334   T   T   T
  0.2942590380576504  0.6676001445975493  0.5840377125339291   T   T   T
  0.4443548154572546  0.4587216247452014  0.6110111479395548   T   T   T
  0.3349724259124914  0.2516312895766397  0.6292894773557971   T   T   T
  0.2448942051824588  0.0336142361642488  0.6304740303690318   T   T   T
  0.5169491525423737  0.8644067796610173  0.3976208246282127   F   F   F
  0.6694915254237301  0.6440677966101660  0.4162352201503552   F   F   F
  0.5720338983050866  0.4237288135593218  0.4348496156724977   F   F   F
  0.7245762711864430  0.2033898305084776  0.4534640111946402   F   F   F
  0.6265849937978623  0.9895059510346241  0.4640928476066902   T   T   T
  0.5280861308843020  0.7694727556095763  0.4926323387985374   T   T   T
  0.6815829087703277  0.5466694904777885  0.5094020773592196   T   T   T
  0.5839968992666904  0.3278273643603995  0.5305846185891139   T   T   T
  0.7358902265328843  0.1049325456340610  0.5412977321845179   T   T   T
  0.6378579046795290  0.8836396197614910  0.5682886128780690   T   T   T
  0.5421122061637887  0.6657766443202927  0.5860634198432435   T   T   T
  0.6947293781560130  0.4549691997838325  0.6044985021877989   T   T   T
  0.6014496025079348  0.2457447217655679  0.6277458842198145   T   T   T
  0.4900418267390915  0.0340237562830965  0.6326721681025314   T   T   T
  0.7669491525423737  0.8644067796610173  0.3976208246282127   F   F   F
  0.9194915254237301  0.6440677966101660  0.4162352201503552   F   F   F
  0.8220338983050866  0.4237288135593218  0.4348496156724977   F   F   F
  0.9745762711864430  0.2033898305084776  0.4534640111946402   F   F   F
  0.8769935284732424  0.9890127644713564  0.4645824585732941   T   T   T
  0.7780216532100782  0.7720883895671158  0.4922695248511474   T   T   T
  0.9315768118135418  0.5517657025299673  0.5107305976051415   T   T   T
  0.8337754923799405  0.3299634865869593  0.5273357968864100   T   T   T
  0.9879323625422265  0.1064492031550747  0.5408555690252848   T   T   T
  0.8865787853983512  0.8855813919555974  0.5676728405887099   T   T   T
  0.7873052123897841  0.6689576389973517  0.5849166994849976   T   T   T
  0.9403426662948390  0.4589581696680827  0.6035750370363714   T   T   T
  0.8495393251248412  0.2466665795735259  0.6206904459919141   T   T   T
  0.7532312412848023  0.0291277967645052  0.6326161602973424   T   T   T
  0.6150527382757418  0.1051588458669559  0.6792718173365844   T   T   T
  0.6131942267063126  0.1010102048332190  0.7223989805786815   T   T   T
  0.3880142190188620  0.3848062286564860  0.6715160008617593   T   T   T
  0.3829314446452892  0.4071077639162669  0.7132724251724576   T   T   T
  0.0337442244153209  0.7255741363637360  0.6588407537692353   T   T   T
  0.1168660596034304  0.7109333776397235  0.6704972411957063   T   T   T
 
  0.00000000E+00  0.00000000E+00  0.00000000E+00
  0.00000000E+00  0.00000000E+00  0.00000000E+00
  0.00000000E+00  0.00000000E+00  0.00000000E+00
  0.00000000E+00  0.00000000E+00  0.00000000E+00
  0.00000000E+00  0.00000000E+00  0.00000000E+00
  0.00000000E+00  0.00000000E+00  0.00000000E+00
  0.00000000E+00  0.00000000E+00  0.00000000E+00
  0.00000000E+00  0.00000000E+00  0.00000000E+00
  0.00000000E+00  0.00000000E+00  0.00000000E+00
  0.00000000E+00  0.00000000E+00  0.00000000E+00
  0.00000000E+00  0.00000000E+00  0.00000000E+00
  0.00000000E+00  0.00000000E+00  0.00000000E+00
  0.00000000E+00  0.00000000E+00  0.00000000E+00
  0.00000000E+00  0.00000000E+00  0.00000000E+00
  0.00000000E+00  0.00000000E+00  0.00000000E+00
  0.00000000E+00  0.00000000E+00  0.00000000E+00
  0.00000000E+00  0.00000000E+00  0.00000000E+00
  0.00000000E+00  0.00000000E+00  0.00000000E+00
  0.00000000E+00  0.00000000E+00  0.00000000E+00
  0.00000000E+00  0.00000000E+00  0.00000000E+00
  0.00000000E+00  0.00000000E+00  0.00000000E+00
  0.00000000E+00  0.00000000E+00  0.00000000E+00
  0.00000000E+00  0.00000000E+00  0.00000000E+00
  0.00000000E+00  0.00000000E+00  0.00000000E+00
  0.00000000E+00  0.00000000E+00  0.00000000E+00
  0.00000000E+00  0.00000000E+00  0.00000000E+00
  0.00000000E+00  0.00000000E+00  0.00000000E+00
  0.00000000E+00  0.00000000E+00  0.00000000E+00
  0.00000000E+00  0.00000000E+00  0.00000000E+00
  0.00000000E+00  0.00000000E+00  0.00000000E+00
  0.00000000E+00  0.00000000E+00  0.00000000E+00
  0.00000000E+00  0.00000000E+00  0.00000000E+00
  0.00000000E+00  0.00000000E+00  0.00000000E+00
  0.00000000E+00  0.00000000E+00  0.00000000E+00
  0.00000000E+00  0.00000000E+00  0.00000000E+00
  0.00000000E+00  0.00000000E+00  0.00000000E+00
  0.00000000E+00  0.00000000E+00  0.00000000E+00
  0.00000000E+00  0.00000000E+00  0.00000000E+00
  0.00000000E+00  0.00000000E+00  0.00000000E+00
  0.00000000E+00  0.00000000E+00  0.00000000E+00
  0.00000000E+00  0.00000000E+00  0.00000000E+00
  0.00000000E+00  0.00000000E+00  0.00000000E+00
  0.00000000E+00  0.00000000E+00  0.00000000E+00
  0.00000000E+00  0.00000000E+00  0.00000000E+00
  0.00000000E+00  0.00000000E+00  0.00000000E+00
  0.00000000E+00  0.00000000E+00  0.00000000E+00
  0.00000000E+00  0.00000000E+00  0.00000000E+00
  0.00000000E+00  0.00000000E+00  0.00000000E+00
  0.00000000E+00  0.00000000E+00  0.00000000E+00
  0.00000000E+00  0.00000000E+00  0.00000000E+00
  0.00000000E+00  0.00000000E+00  0.00000000E+00
  0.00000000E+00  0.00000000E+00  0.00000000E+00
  0.00000000E+00  0.00000000E+00  0.00000000E+00
  0.00000000E+00  0.00000000E+00  0.00000000E+00
  0.00000000E+00  0.00000000E+00  0.00000000E+00
  0.00000000E+00  0.00000000E+00  0.00000000E+00
  0.00000000E+00  0.00000000E+00  0.00000000E+00
  0.00000000E+00  0.00000000E+00  0.00000000E+00
  0.00000000E+00  0.00000000E+00  0.00000000E+00
  0.00000000E+00  0.00000000E+00  0.00000000E+00
  0.00000000E+00  0.00000000E+00  0.00000000E+00
  0.00000000E+00  0.00000000E+00  0.00000000E+00
