Pt  C  O  C  O  H                       
    1.000000000000000     
    11.2213408561008308    0.0000000000000000    0.0000000000000000
     1.4026676070126025   10.7740943252779040    0.0000000000000000
     0.0000000000000000    0.0000000000000000   27.7475611781839042
   Pt   C    O    C    O    H 
    56     1     1     1     2     1
Selective dynamics
Direct
  0.0169491525423737  0.8644067796610173  0.3976208246282127   F   F   F
  0.1694915254237301  0.6440677966101660  0.4162352201503552   F   F   F
  0.0720338983050866  0.4237288135593218  0.4348496156724977   F   F   F
  0.2245762711864430  0.2033898305084776  0.4534640111946402   F   F   F
  0.1274470642663897  0.9873199585236521  0.4655627647375998   T   T   T
  0.0275064349130876  0.7711975183607059  0.4925662283658904   T   T   T
  0.1829625224069610  0.5507240524752446  0.5097008226841193   T   T   T
  0.0844872035458743  0.3303858934309412  0.5271954396401619   T   T   T
  0.2366797710342951  0.1008352484198281  0.5422537789704996   T   T   T
  0.1407440451644948  0.8805989508861022  0.5704556587851571   T   T   T
  0.0445136494951817  0.6648010745693842  0.5848895130058412   T   T   T
  0.1932732973691757  0.4496161929386291  0.6024032026911502   T   T   T
  0.0965256234551337  0.2357512159818288  0.6180117685454922   T   T   T
  0.9956058456111925  0.0260017952690475  0.6320239758376708   T   T   T
  0.2669491525423737  0.8644067796610173  0.3976208246282127   F   F   F
  0.4194915254237301  0.6440677966101660  0.4162352201503552   F   F   F
  0.3220338983050866  0.4237288135593218  0.4348496156724977   F   F   F
  0.4745762711864430  0.2033898305084776  0.4534640111946402   F   F   F
  0.3764252656592304  0.9884477710862370  0.4654258588404482   T   T   T
  0.2779920264250959  0.7707056283366212  0.4935316589910952   T   T   T
  0.4308608859658130  0.5519875547499544  0.5105904530512797   T   T   T
  0.3353100111592534  0.3297932866661539  0.5268047494738024   T   T   T
  0.4891897184117202  0.1006500820036743  0.5426525428972293   T   T   T
  0.3893721048398297  0.8835821045398140  0.5683228378724693   T   T   T
  0.2905922962826194  0.6683288468921978  0.5910832846337891   T   T   T
  0.4428842777817683  0.4524605546477396  0.6078068634399537   T   T   T
  0.3456383594143276  0.2381756384145533  0.6176986323999412   T   T   T
  0.2476592290871689  0.0223033497946926  0.6370422195696714   T   T   T
  0.5169491525423737  0.8644067796610173  0.3976208246282127   F   F   F
  0.6694915254237301  0.6440677966101660  0.4162352201503552   F   F   F
  0.5720338983050866  0.4237288135593218  0.4348496156724977   F   F   F
  0.7245762711864430  0.2033898305084776  0.4534640111946402   F   F   F
  0.6257829695011555  0.9875416937362327  0.4656486517639133   T   T   T
  0.5281166865004117  0.7713672655653256  0.4934683109975155   T   T   T
  0.6781845002516328  0.5511581780339438  0.5097062990078762   T   T   T
  0.5819210343446609  0.3299674709569108  0.5274530981952552   T   T   T
  0.7376693935164959  0.1017837910202043  0.5407745925224056   T   T   T
  0.6385637765901439  0.8797463441574227  0.5706899986091988   T   T   T
  0.5406598239386176  0.6684062045140691  0.5913871187129650   T   T   T
  0.6935759835831060  0.4507788644717308  0.6023184061012284   T   T   T
  0.5946664860057932  0.2387870191682261  0.6191652936140171   T   T   T
  0.4982486151079186  0.0226206236983345  0.6372048925780082   T   T   T
  0.7669491525423737  0.8644067796610173  0.3976208246282127   F   F   F
  0.9194915254237301  0.6440677966101660  0.4162352201503552   F   F   F
  0.8220338983050866  0.4237288135593218  0.4348496156724977   F   F   F
  0.9745762711864430  0.2033898305084776  0.4534640111946402   F   F   F
  0.8766354174911726  0.9878094411480519  0.4650846218346856   T   T   T
  0.7782554671250910  0.7719898858681910  0.4923629235135389   T   T   T
  0.9309458302315723  0.5489708977981118  0.5107318594902334   T   T   T
  0.8334157264377682  0.3318742939946661  0.5275391369541628   T   T   T
  0.9867291839371511  0.1014644105571654  0.5408698262725531   T   T   T
  0.8899413965366950  0.8777585154637418  0.5701573791166135   T   T   T
  0.7893187290212613  0.6648157742092400  0.5845622355272528   T   T   T
  0.9431918258081520  0.4548149036054067  0.6071405000517015   T   T   T
  0.8439448391648853  0.2381718516715325  0.6184859339531559   T   T   T
  0.7472135516316354  0.0260110716766793  0.6317700903278302   T   T   T
  0.3761206961413633  0.9953994987985489  0.6878662123959924   T   T   T
  0.3787473090545639  0.9738850499496063  0.7296697862347283   T   T   T
  0.4214362113732193  0.6221035990760282  0.6450140877953205   T   T   T
  0.4178177641202974  0.6462067438393950  0.6870181691678430   T   T   T
  0.9345435527823008  0.4861996995566541  0.6773797584244409   T   T   T
  0.0167837297593156  0.4928092890060587  0.6880533150104473   T   T   T
 
  0.00000000E+00  0.00000000E+00  0.00000000E+00
  0.00000000E+00  0.00000000E+00  0.00000000E+00
  0.00000000E+00  0.00000000E+00  0.00000000E+00
  0.00000000E+00  0.00000000E+00  0.00000000E+00
  0.00000000E+00  0.00000000E+00  0.00000000E+00
  0.00000000E+00  0.00000000E+00  0.00000000E+00
  0.00000000E+00  0.00000000E+00  0.00000000E+00
  0.00000000E+00  0.00000000E+00  0.00000000E+00
  0.00000000E+00  0.00000000E+00  0.00000000E+00
  0.00000000E+00  0.00000000E+00  0.00000000E+00
  0.00000000E+00  0.00000000E+00  0.00000000E+00
  0.00000000E+00  0.00000000E+00  0.00000000E+00
  0.00000000E+00  0.00000000E+00  0.00000000E+00
  0.00000000E+00  0.00000000E+00  0.00000000E+00
  0.00000000E+00  0.00000000E+00  0.00000000E+00
  0.00000000E+00  0.00000000E+00  0.00000000E+00
  0.00000000E+00  0.00000000E+00  0.00000000E+00
  0.00000000E+00  0.00000000E+00  0.00000000E+00
  0.00000000E+00  0.00000000E+00  0.00000000E+00
  0.00000000E+00  0.00000000E+00  0.00000000E+00
  0.00000000E+00  0.00000000E+00  0.00000000E+00
  0.00000000E+00  0.00000000E+00  0.00000000E+00
  0.00000000E+00  0.00000000E+00  0.00000000E+00
  0.00000000E+00  0.00000000E+00  0.00000000E+00
  0.00000000E+00  0.00000000E+00  0.00000000E+00
  0.00000000E+00  0.00000000E+00  0.00000000E+00
  0.00000000E+00  0.00000000E+00  0.00000000E+00
  0.00000000E+00  0.00000000E+00  0.00000000E+00
  0.00000000E+00  0.00000000E+00  0.00000000E+00
  0.00000000E+00  0.00000000E+00  0.00000000E+00
  0.00000000E+00  0.00000000E+00  0.00000000E+00
  0.00000000E+00  0.00000000E+00  0.00000000E+00
  0.00000000E+00  0.00000000E+00  0.00000000E+00
  0.00000000E+00  0.00000000E+00  0.00000000E+00
  0.00000000E+00  0.00000000E+00  0.00000000E+00
  0.00000000E+00  0.00000000E+00  0.00000000E+00
  0.00000000E+00  0.00000000E+00  0.00000000E+00
  0.00000000E+00  0.00000000E+00  0.00000000E+00
  0.00000000E+00  0.00000000E+00  0.00000000E+00
  0.00000000E+00  0.00000000E+00  0.00000000E+00
  0.00000000E+00  0.00000000E+00  0.00000000E+00
  0.00000000E+00  0.00000000E+00  0.00000000E+00
  0.00000000E+00  0.00000000E+00  0.00000000E+00
  0.00000000E+00  0.00000000E+00  0.00000000E+00
  0.00000000E+00  0.00000000E+00  0.00000000E+00
  0.00000000E+00  0.00000000E+00  0.00000000E+00
  0.00000000E+00  0.00000000E+00  0.00000000E+00
  0.00000000E+00  0.00000000E+00  0.00000000E+00
  0.00000000E+00  0.00000000E+00  0.00000000E+00
  0.00000000E+00  0.00000000E+00  0.00000000E+00
  0.00000000E+00  0.00000000E+00  0.00000000E+00
  0.00000000E+00  0.00000000E+00  0.00000000E+00
  0.00000000E+00  0.00000000E+00  0.00000000E+00
  0.00000000E+00  0.00000000E+00  0.00000000E+00
  0.00000000E+00  0.00000000E+00  0.00000000E+00
  0.00000000E+00  0.00000000E+00  0.00000000E+00
  0.00000000E+00  0.00000000E+00  0.00000000E+00
  0.00000000E+00  0.00000000E+00  0.00000000E+00
  0.00000000E+00  0.00000000E+00  0.00000000E+00
  0.00000000E+00  0.00000000E+00  0.00000000E+00
  0.00000000E+00  0.00000000E+00  0.00000000E+00
  0.00000000E+00  0.00000000E+00  0.00000000E+00
