Pt  C  O  C  O  H                       
    1.000000000000000     
    11.2213408561008308    0.0000000000000000    0.0000000000000000
     1.4026676070126025   10.7740943252779040    0.0000000000000000
     0.0000000000000000    0.0000000000000000   27.7475611781839042
   Pt   C    O    C    O    H 
    56     1     1     1     2     1
Selective dynamics
Direct
  0.0169491525423737  0.8644067796610173  0.3976208246282127   F   F   F
  0.1694915254237301  0.6440677966101660  0.4162352201503552   F   F   F
  0.0720338983050866  0.4237288135593218  0.4348496156724977   F   F   F
  0.2245762711864430  0.2033898305084776  0.4534640111946402   F   F   F
  0.1262954459817195  0.9872477794862309  0.4652721013176438   T   T   T
  0.0266673902862758  0.7704903323057970  0.4927271062252555   T   T   T
  0.1802332043254757  0.5490230917408642  0.5103060999511844   T   T   T
  0.0838272292537312  0.3275545495811812  0.5287597273723766   T   T   T
  0.2358503919126392  0.1050532998644576  0.5413217329419254   T   T   T
  0.1371263781167783  0.8816154494382999  0.5688028929427199   T   T   T
  0.0422115844509501  0.6647761863800278  0.5860256431399218   T   T   T
  0.1881035706062830  0.4513074742955611  0.6043235120281848   T   T   T
  0.0913219286947665  0.2446497605284056  0.6264696883737652   T   T   T
  0.9879444397353875  0.0291446168984571  0.6328770113068048   T   T   T
  0.2669491525423737  0.8644067796610173  0.3976208246282127   F   F   F
  0.4194915254237301  0.6440677966101660  0.4162352201503552   F   F   F
  0.3220338983050866  0.4237288135593218  0.4348496156724977   F   F   F
  0.4745762711864430  0.2033898305084776  0.4534640111946402   F   F   F
  0.3758516663955769  0.9882927671946868  0.4644301967944917   T   T   T
  0.2772963692046715  0.7696255506299419  0.4931040960577900   T   T   T
  0.4289116617165891  0.5511817809708586  0.5105913248729563   T   T   T
  0.3338359389276699  0.3321357932002593  0.5281851641742176   T   T   T
  0.4859224504472936  0.1041222483291718  0.5405826938046803   T   T   T
  0.3848093137192539  0.8847419647094744  0.5679028336679396   T   T   T
  0.2867192162558666  0.6699107432009267  0.5911309687379989   T   T   T
  0.4400286371473612  0.4571537791004650  0.6094883261946675   T   T   T
  0.3467838955116714  0.2449850601790505  0.6201396834257882   T   T   T
  0.2489105921029338  0.0295706612669459  0.6327631718208658   T   T   T
  0.5169491525423737  0.8644067796610173  0.3976208246282127   F   F   F
  0.6694915254237301  0.6440677966101660  0.4162352201503552   F   F   F
  0.5720338983050866  0.4237288135593218  0.4348496156724977   F   F   F
  0.7245762711864430  0.2033898305084776  0.4534640111946402   F   F   F
  0.6266661140974809  0.9877605540581632  0.4647311338368234   T   T   T
  0.5273362149934058  0.7703480057533985  0.4927902214158446   T   T   T
  0.6800025561658064  0.5523668847430296  0.5113977234914925   T   T   T
  0.5804918853598686  0.3341108240919035  0.5278302211941511   T   T   T
  0.7350481186088337  0.1058051107712828  0.5408028236683847   T   T   T
  0.6368694485232801  0.8822591069279107  0.5671199780253970   T   T   T
  0.5368756980130045  0.6704943654327046  0.5892290803477760   T   T   T
  0.6921604548095831  0.4543339496397770  0.6032404603910596   T   T   T
  0.5918867520671051  0.2442444705659968  0.6199920282043143   T   T   T
  0.4953507868802963  0.0285649497373851  0.6307852175659268   T   T   T
  0.7669491525423737  0.8644067796610173  0.3976208246282127   F   F   F
  0.9194915254237301  0.6440677966101660  0.4162352201503552   F   F   F
  0.8220338983050866  0.4237288135593218  0.4348496156724977   F   F   F
  0.9745762711864430  0.2033898305084776  0.4534640111946402   F   F   F
  0.8761140268115410  0.9881595302089535  0.4645394758435312   T   T   T
  0.7771307545796889  0.7692725147663768  0.4932112972353763   T   T   T
  0.9306903355970009  0.5487149391860566  0.5103928020105142   T   T   T
  0.8319406062682378  0.3304769291667092  0.5268156284431764   T   T   T
  0.9861174272588372  0.1027772667005286  0.5412409315028752   T   T   T
  0.8897928854437263  0.8819445484747125  0.5686110055928921   T   T   T
  0.7891586674203075  0.6702271263514472  0.5903380223169615   T   T   T
  0.9417743778323301  0.4515160687560061  0.6035414037436378   T   T   T
  0.8364860502277488  0.2434613951591041  0.6195000297154961   T   T   T
  0.7420133093566288  0.0262751087234882  0.6306436712757317   T   T   T
  0.4207013017490037  0.6272214967841581  0.6449350301247535   T   T   T
  0.4192610094262433  0.6552688284041076  0.6865400477212883   T   T   T
  0.1079518759738627  0.1084060686670666  0.6791383505315740   T   T   T
  0.1087427020599421  0.1056955629541419  0.7222873622248797   T   T   T
  0.7837653119791681  0.7146427669549348  0.6599442870735565   T   T   T
  0.8636081479519762  0.6851897351700882  0.6730047999237876   T   T   T
 
  0.00000000E+00  0.00000000E+00  0.00000000E+00
  0.00000000E+00  0.00000000E+00  0.00000000E+00
  0.00000000E+00  0.00000000E+00  0.00000000E+00
  0.00000000E+00  0.00000000E+00  0.00000000E+00
  0.00000000E+00  0.00000000E+00  0.00000000E+00
  0.00000000E+00  0.00000000E+00  0.00000000E+00
  0.00000000E+00  0.00000000E+00  0.00000000E+00
  0.00000000E+00  0.00000000E+00  0.00000000E+00
  0.00000000E+00  0.00000000E+00  0.00000000E+00
  0.00000000E+00  0.00000000E+00  0.00000000E+00
  0.00000000E+00  0.00000000E+00  0.00000000E+00
  0.00000000E+00  0.00000000E+00  0.00000000E+00
  0.00000000E+00  0.00000000E+00  0.00000000E+00
  0.00000000E+00  0.00000000E+00  0.00000000E+00
  0.00000000E+00  0.00000000E+00  0.00000000E+00
  0.00000000E+00  0.00000000E+00  0.00000000E+00
  0.00000000E+00  0.00000000E+00  0.00000000E+00
  0.00000000E+00  0.00000000E+00  0.00000000E+00
  0.00000000E+00  0.00000000E+00  0.00000000E+00
  0.00000000E+00  0.00000000E+00  0.00000000E+00
  0.00000000E+00  0.00000000E+00  0.00000000E+00
  0.00000000E+00  0.00000000E+00  0.00000000E+00
  0.00000000E+00  0.00000000E+00  0.00000000E+00
  0.00000000E+00  0.00000000E+00  0.00000000E+00
  0.00000000E+00  0.00000000E+00  0.00000000E+00
  0.00000000E+00  0.00000000E+00  0.00000000E+00
  0.00000000E+00  0.00000000E+00  0.00000000E+00
  0.00000000E+00  0.00000000E+00  0.00000000E+00
  0.00000000E+00  0.00000000E+00  0.00000000E+00
  0.00000000E+00  0.00000000E+00  0.00000000E+00
  0.00000000E+00  0.00000000E+00  0.00000000E+00
  0.00000000E+00  0.00000000E+00  0.00000000E+00
  0.00000000E+00  0.00000000E+00  0.00000000E+00
  0.00000000E+00  0.00000000E+00  0.00000000E+00
  0.00000000E+00  0.00000000E+00  0.00000000E+00
  0.00000000E+00  0.00000000E+00  0.00000000E+00
  0.00000000E+00  0.00000000E+00  0.00000000E+00
  0.00000000E+00  0.00000000E+00  0.00000000E+00
  0.00000000E+00  0.00000000E+00  0.00000000E+00
  0.00000000E+00  0.00000000E+00  0.00000000E+00
  0.00000000E+00  0.00000000E+00  0.00000000E+00
  0.00000000E+00  0.00000000E+00  0.00000000E+00
  0.00000000E+00  0.00000000E+00  0.00000000E+00
  0.00000000E+00  0.00000000E+00  0.00000000E+00
  0.00000000E+00  0.00000000E+00  0.00000000E+00
  0.00000000E+00  0.00000000E+00  0.00000000E+00
  0.00000000E+00  0.00000000E+00  0.00000000E+00
  0.00000000E+00  0.00000000E+00  0.00000000E+00
  0.00000000E+00  0.00000000E+00  0.00000000E+00
  0.00000000E+00  0.00000000E+00  0.00000000E+00
  0.00000000E+00  0.00000000E+00  0.00000000E+00
  0.00000000E+00  0.00000000E+00  0.00000000E+00
  0.00000000E+00  0.00000000E+00  0.00000000E+00
  0.00000000E+00  0.00000000E+00  0.00000000E+00
  0.00000000E+00  0.00000000E+00  0.00000000E+00
  0.00000000E+00  0.00000000E+00  0.00000000E+00
  0.00000000E+00  0.00000000E+00  0.00000000E+00
  0.00000000E+00  0.00000000E+00  0.00000000E+00
  0.00000000E+00  0.00000000E+00  0.00000000E+00
  0.00000000E+00  0.00000000E+00  0.00000000E+00
  0.00000000E+00  0.00000000E+00  0.00000000E+00
  0.00000000E+00  0.00000000E+00  0.00000000E+00
