Pt  C  O  C  O  H                       
    1.000000000000000     
    11.2213408561008308    0.0000000000000000    0.0000000000000000
     1.4026676070126025   10.7740943252779040    0.0000000000000000
     0.0000000000000000    0.0000000000000000   27.7475611781839042
   Pt   C    O    C    O    H 
    56     1     1     1     2     1
Selective dynamics
Direct
  0.0169491525423737  0.8644067796610173  0.3976208246282127   F   F   F
  0.1694915254237301  0.6440677966101660  0.4162352201503552   F   F   F
  0.0720338983050866  0.4237288135593218  0.4348496156724977   F   F   F
  0.2245762711864430  0.2033898305084776  0.4534640111946402   F   F   F
  0.1257609043652783  0.9885438657676523  0.4649003301279714   T   T   T
  0.0286766614677771  0.7732593268361211  0.4925624273557512   T   T   T
  0.1836429565676413  0.5536936857682616  0.5110152852048970   T   T   T
  0.0853844245781023  0.3332252097701061  0.5269742796648960   T   T   T
  0.2361947790616495  0.1046568683652637  0.5403072476894839   T   T   T
  0.1402562635969983  0.8814672064190354  0.5693694167845943   T   T   T
  0.0432325100513925  0.6689237249431619  0.5860483653695328   T   T   T
  0.1930051102801299  0.4577733471233715  0.6043017059047597   T   T   T
  0.0980185659671681  0.2468087923441434  0.6197883755773930   T   T   T
  0.0032552544466565  0.0308310391208204  0.6306618270517420   T   T   T
  0.2669491525423737  0.8644067796610173  0.3976208246282127   F   F   F
  0.4194915254237301  0.6440677966101660  0.4162352201503552   F   F   F
  0.3220338983050866  0.4237288135593218  0.4348496156724977   F   F   F
  0.4745762711864430  0.2033898305084776  0.4534640111946402   F   F   F
  0.3771310806276908  0.9883585517318807  0.4643733778002035   T   T   T
  0.2780054789417479  0.7730265858397042  0.4934452330290873   T   T   T
  0.4308392055191222  0.5546381137759135  0.5101454747571740   T   T   T
  0.3340011204042722  0.3332864083304297  0.5268127783405876   T   T   T
  0.4872424415458357  0.1053115382653802  0.5409670321182164   T   T   T
  0.3891235681066806  0.8871448015501908  0.5667843361215074   T   T   T
  0.2922768192016504  0.6720824263113955  0.5937871893009573   T   T   T
  0.4433476713786246  0.4536903775550454  0.6025625297358211   T   T   T
  0.3438492261025846  0.2454112431425994  0.6194433215096791   T   T   T
  0.2463247132572529  0.0322448261558325  0.6309885367378415   T   T   T
  0.5169491525423737  0.8644067796610173  0.3976208246282127   F   F   F
  0.6694915254237301  0.6440677966101660  0.4162352201503552   F   F   F
  0.5720338983050866  0.4237288135593218  0.4348496156724977   F   F   F
  0.7245762711864430  0.2033898305084776  0.4534640111946402   F   F   F
  0.6277405478858721  0.9895364255922370  0.4656453196283483   T   T   T
  0.5281594985782770  0.7728816823884437  0.4932020313598888   T   T   T
  0.6787422154256874  0.5540066922610897  0.5100781115897188   T   T   T
  0.5829757001726863  0.3315633613734491  0.5264648577812524   T   T   T
  0.7385906912960492  0.1068771928846821  0.5458884744248450   T   T   T
  0.6400339087733107  0.8838396146713384  0.5691053881106628   T   T   T
  0.5411061824918738  0.6722966664890683  0.5930553538755855   T   T   T
  0.6933202989784003  0.4563562072130178  0.6022628604681168   T   T   T
  0.5925587855684473  0.2424613618132507  0.6183743133529980   T   T   T
  0.4907813042405009  0.0298302228530550  0.6314072088301269   T   T   T
  0.7669491525423737  0.8644067796610173  0.3976208246282127   F   F   F
  0.9194915254237301  0.6440677966101660  0.4162352201503552   F   F   F
  0.8220338983050866  0.4237288135593218  0.4348496156724977   F   F   F
  0.9745762711864430  0.2033898305084776  0.4534640111946402   F   F   F
  0.8752276160124443  0.9897861869655965  0.4664236786772109   T   T   T
  0.7786719540023659  0.7741084050836072  0.4926699220873222   T   T   T
  0.9309920379171931  0.5518655526301771  0.5088505829354231   T   T   T
  0.8328152568522621  0.3309770141725025  0.5292575360126780   T   T   T
  0.9874222334278249  0.1077413630676106  0.5415920071706721   T   T   T
  0.8901387144954214  0.8827955235248640  0.5697813298374739   T   T   T
  0.7903360479447169  0.6683555470154872  0.5855668220232416   T   T   T
  0.9451846598654895  0.4586324038703347  0.6019097776038690   T   T   T
  0.8459472823919292  0.2471478635335199  0.6241656691608819   T   T   T
  0.7465094962231942  0.0256998207031546  0.6353982289229274   T   T   T
  0.4156657652834460  0.6876816370856446  0.6455170437875358   T   T   T
  0.4140023321221092  0.7085921621368120  0.6874169816398159   T   T   T
  0.7523398943156071  0.9746645093473504  0.6995317106627941   T   T   T
  0.7565537835219927  0.9432063268751228  0.7394669600510715   T   T   T
  0.8475178956919025  0.2680959551478124  0.6950254656343736   T   T   T
  0.9294180667690281  0.2828590558193269  0.7033921559896305   T   T   T
 
  0.00000000E+00  0.00000000E+00  0.00000000E+00
  0.00000000E+00  0.00000000E+00  0.00000000E+00
  0.00000000E+00  0.00000000E+00  0.00000000E+00
  0.00000000E+00  0.00000000E+00  0.00000000E+00
  0.00000000E+00  0.00000000E+00  0.00000000E+00
  0.00000000E+00  0.00000000E+00  0.00000000E+00
  0.00000000E+00  0.00000000E+00  0.00000000E+00
  0.00000000E+00  0.00000000E+00  0.00000000E+00
  0.00000000E+00  0.00000000E+00  0.00000000E+00
  0.00000000E+00  0.00000000E+00  0.00000000E+00
  0.00000000E+00  0.00000000E+00  0.00000000E+00
  0.00000000E+00  0.00000000E+00  0.00000000E+00
  0.00000000E+00  0.00000000E+00  0.00000000E+00
  0.00000000E+00  0.00000000E+00  0.00000000E+00
  0.00000000E+00  0.00000000E+00  0.00000000E+00
  0.00000000E+00  0.00000000E+00  0.00000000E+00
  0.00000000E+00  0.00000000E+00  0.00000000E+00
  0.00000000E+00  0.00000000E+00  0.00000000E+00
  0.00000000E+00  0.00000000E+00  0.00000000E+00
  0.00000000E+00  0.00000000E+00  0.00000000E+00
  0.00000000E+00  0.00000000E+00  0.00000000E+00
  0.00000000E+00  0.00000000E+00  0.00000000E+00
  0.00000000E+00  0.00000000E+00  0.00000000E+00
  0.00000000E+00  0.00000000E+00  0.00000000E+00
  0.00000000E+00  0.00000000E+00  0.00000000E+00
  0.00000000E+00  0.00000000E+00  0.00000000E+00
  0.00000000E+00  0.00000000E+00  0.00000000E+00
  0.00000000E+00  0.00000000E+00  0.00000000E+00
  0.00000000E+00  0.00000000E+00  0.00000000E+00
  0.00000000E+00  0.00000000E+00  0.00000000E+00
  0.00000000E+00  0.00000000E+00  0.00000000E+00
  0.00000000E+00  0.00000000E+00  0.00000000E+00
  0.00000000E+00  0.00000000E+00  0.00000000E+00
  0.00000000E+00  0.00000000E+00  0.00000000E+00
  0.00000000E+00  0.00000000E+00  0.00000000E+00
  0.00000000E+00  0.00000000E+00  0.00000000E+00
  0.00000000E+00  0.00000000E+00  0.00000000E+00
  0.00000000E+00  0.00000000E+00  0.00000000E+00
  0.00000000E+00  0.00000000E+00  0.00000000E+00
  0.00000000E+00  0.00000000E+00  0.00000000E+00
  0.00000000E+00  0.00000000E+00  0.00000000E+00
  0.00000000E+00  0.00000000E+00  0.00000000E+00
  0.00000000E+00  0.00000000E+00  0.00000000E+00
  0.00000000E+00  0.00000000E+00  0.00000000E+00
  0.00000000E+00  0.00000000E+00  0.00000000E+00
  0.00000000E+00  0.00000000E+00  0.00000000E+00
  0.00000000E+00  0.00000000E+00  0.00000000E+00
  0.00000000E+00  0.00000000E+00  0.00000000E+00
  0.00000000E+00  0.00000000E+00  0.00000000E+00
  0.00000000E+00  0.00000000E+00  0.00000000E+00
  0.00000000E+00  0.00000000E+00  0.00000000E+00
  0.00000000E+00  0.00000000E+00  0.00000000E+00
  0.00000000E+00  0.00000000E+00  0.00000000E+00
  0.00000000E+00  0.00000000E+00  0.00000000E+00
  0.00000000E+00  0.00000000E+00  0.00000000E+00
  0.00000000E+00  0.00000000E+00  0.00000000E+00
  0.00000000E+00  0.00000000E+00  0.00000000E+00
  0.00000000E+00  0.00000000E+00  0.00000000E+00
  0.00000000E+00  0.00000000E+00  0.00000000E+00
  0.00000000E+00  0.00000000E+00  0.00000000E+00
  0.00000000E+00  0.00000000E+00  0.00000000E+00
  0.00000000E+00  0.00000000E+00  0.00000000E+00
