Pt  C  O  C  O  H                       
    1.000000000000000     
    11.2213408561008308    0.0000000000000000    0.0000000000000000
     1.4026676070126025   10.7740943252779040    0.0000000000000000
     0.0000000000000000    0.0000000000000000   27.7475611781839042
   Pt   C    O    C    O    H 
    56     1     1     1     2     1
Selective dynamics
Direct
  0.0169491525423737  0.8644067796610173  0.3976208246282127   F   F   F
  0.1694915254237301  0.6440677966101660  0.4162352201503552   F   F   F
  0.0720338983050866  0.4237288135593218  0.4348496156724977   F   F   F
  0.2245762711864430  0.2033898305084776  0.4534640111946402   F   F   F
  0.1261482973550360  0.9876786775849226  0.4652007855825441   T   T   T
  0.0288740554036056  0.7723581253436431  0.4926652397147490   T   T   T
  0.1838423606893305  0.5532244960759989  0.5110494957514427   T   T   T
  0.0845191513903015  0.3317796674972686  0.5268164757912712   T   T   T
  0.2360962209437720  0.1044297027430194  0.5405765069106037   T   T   T
  0.1403140366026095  0.8803655890280112  0.5697789413264127   T   T   T
  0.0437114956832431  0.6675086576161331  0.5866246167325387   T   T   T
  0.1923941298405487  0.4544882330210376  0.6042586818531411   T   T   T
  0.0939111095930824  0.2440274554912075  0.6196700658972792   T   T   T
  0.0021131986923338  0.0285608897014373  0.6315818597023594   T   T   T
  0.2669491525423737  0.8644067796610173  0.3976208246282127   F   F   F
  0.4194915254237301  0.6440677966101660  0.4162352201503552   F   F   F
  0.3220338983050866  0.4237288135593218  0.4348496156724977   F   F   F
  0.4745762711864430  0.2033898305084776  0.4534640111946402   F   F   F
  0.3768834865200771  0.9877191934102075  0.4646013219051089   T   T   T
  0.2780006579653244  0.7722231506013240  0.4933948753954976   T   T   T
  0.4306605143228830  0.5540399956501547  0.5099740181230280   T   T   T
  0.3334344322821652  0.3319153725443275  0.5265435908883704   T   T   T
  0.4867938282002863  0.1047529310849709  0.5407994236352182   T   T   T
  0.3884939058268895  0.8862832516477530  0.5667344186795678   T   T   T
  0.2913959275341015  0.6703192936906892  0.5940520114112223   T   T   T
  0.4408581275376434  0.4504748646960668  0.6012920835108145   T   T   T
  0.3436000513352905  0.2422612086071296  0.6192896531413634   T   T   T
  0.2455993878192610  0.0307403581413573  0.6313431553025980   T   T   T
  0.5169491525423737  0.8644067796610173  0.3976208246282127   F   F   F
  0.6694915254237301  0.6440677966101660  0.4162352201503552   F   F   F
  0.5720338983050866  0.4237288135593218  0.4348496156724977   F   F   F
  0.7245762711864430  0.2033898305084776  0.4534640111946402   F   F   F
  0.6274766690157609  0.9887634445913769  0.4661116767600927   T   T   T
  0.5290113681574887  0.7713218484103275  0.4930170993670390   T   T   T
  0.6787418285526389  0.5528826475150692  0.5123731406170724   T   T   T
  0.5839899034373559  0.3318247661187027  0.5271253121901003   T   T   T
  0.7381323345782662  0.1033595419363373  0.5451488348880318   T   T   T
  0.6397928617835728  0.8824388620760403  0.5695314115658197   T   T   T
  0.5392292806325066  0.6709272378786455  0.5921996962832820   T   T   T
  0.6953024681645568  0.4565661237098635  0.6075586471991169   T   T   T
  0.5950853326677820  0.2395448017967524  0.6177433086335499   T   T   T
  0.4908129154956250  0.0281604572434721  0.6312593426424072   T   T   T
  0.7669491525423737  0.8644067796610173  0.3976208246282127   F   F   F
  0.9194915254237301  0.6440677966101660  0.4162352201503552   F   F   F
  0.8220338983050866  0.4237288135593218  0.4348496156724977   F   F   F
  0.9745762711864430  0.2033898305084776  0.4534640111946402   F   F   F
  0.8753830501311407  0.9895816156300903  0.4656941424555301   T   T   T
  0.7788230428935848  0.7731648476146289  0.4924257784700604   T   T   T
  0.9325996606567102  0.5518112644832051  0.5091302379090477   T   T   T
  0.8327336119643607  0.3337952140233003  0.5273302178201413   T   T   T
  0.9877839307532297  0.1036031731260464  0.5408840410959036   T   T   T
  0.8908442781197091  0.8812692653429437  0.5696778563871892   T   T   T
  0.7913075441857478  0.6677937582119616  0.5846703250791043   T   T   T
  0.9469624962144951  0.4568700835063520  0.6028037856848294   T   T   T
  0.8477647506764342  0.2403969956165629  0.6176297276502364   T   T   T
  0.7478435212540500  0.0243365196773768  0.6362012802488733   T   T   T
  0.4158333777807728  0.6876411223023304  0.6453575661077675   T   T   T
  0.4143860171758353  0.7079365606609240  0.6872603655362259   T   T   T
  0.7541469865397821  0.9717614686204146  0.6998497612908580   T   T   T
  0.7585735951534816  0.9392547527580112  0.7397110418682101   T   T   T
  0.6872353060067183  0.4795567901261423  0.6783238454548004   T   T   T
  0.7688265875220363  0.4905094138199218  0.6886107899951822   T   T   T
 
  0.00000000E+00  0.00000000E+00  0.00000000E+00
  0.00000000E+00  0.00000000E+00  0.00000000E+00
  0.00000000E+00  0.00000000E+00  0.00000000E+00
  0.00000000E+00  0.00000000E+00  0.00000000E+00
  0.00000000E+00  0.00000000E+00  0.00000000E+00
  0.00000000E+00  0.00000000E+00  0.00000000E+00
  0.00000000E+00  0.00000000E+00  0.00000000E+00
  0.00000000E+00  0.00000000E+00  0.00000000E+00
  0.00000000E+00  0.00000000E+00  0.00000000E+00
  0.00000000E+00  0.00000000E+00  0.00000000E+00
  0.00000000E+00  0.00000000E+00  0.00000000E+00
  0.00000000E+00  0.00000000E+00  0.00000000E+00
  0.00000000E+00  0.00000000E+00  0.00000000E+00
  0.00000000E+00  0.00000000E+00  0.00000000E+00
  0.00000000E+00  0.00000000E+00  0.00000000E+00
  0.00000000E+00  0.00000000E+00  0.00000000E+00
  0.00000000E+00  0.00000000E+00  0.00000000E+00
  0.00000000E+00  0.00000000E+00  0.00000000E+00
  0.00000000E+00  0.00000000E+00  0.00000000E+00
  0.00000000E+00  0.00000000E+00  0.00000000E+00
  0.00000000E+00  0.00000000E+00  0.00000000E+00
  0.00000000E+00  0.00000000E+00  0.00000000E+00
  0.00000000E+00  0.00000000E+00  0.00000000E+00
  0.00000000E+00  0.00000000E+00  0.00000000E+00
  0.00000000E+00  0.00000000E+00  0.00000000E+00
  0.00000000E+00  0.00000000E+00  0.00000000E+00
  0.00000000E+00  0.00000000E+00  0.00000000E+00
  0.00000000E+00  0.00000000E+00  0.00000000E+00
  0.00000000E+00  0.00000000E+00  0.00000000E+00
  0.00000000E+00  0.00000000E+00  0.00000000E+00
  0.00000000E+00  0.00000000E+00  0.00000000E+00
  0.00000000E+00  0.00000000E+00  0.00000000E+00
  0.00000000E+00  0.00000000E+00  0.00000000E+00
  0.00000000E+00  0.00000000E+00  0.00000000E+00
  0.00000000E+00  0.00000000E+00  0.00000000E+00
  0.00000000E+00  0.00000000E+00  0.00000000E+00
  0.00000000E+00  0.00000000E+00  0.00000000E+00
  0.00000000E+00  0.00000000E+00  0.00000000E+00
  0.00000000E+00  0.00000000E+00  0.00000000E+00
  0.00000000E+00  0.00000000E+00  0.00000000E+00
  0.00000000E+00  0.00000000E+00  0.00000000E+00
  0.00000000E+00  0.00000000E+00  0.00000000E+00
  0.00000000E+00  0.00000000E+00  0.00000000E+00
  0.00000000E+00  0.00000000E+00  0.00000000E+00
  0.00000000E+00  0.00000000E+00  0.00000000E+00
  0.00000000E+00  0.00000000E+00  0.00000000E+00
  0.00000000E+00  0.00000000E+00  0.00000000E+00
  0.00000000E+00  0.00000000E+00  0.00000000E+00
  0.00000000E+00  0.00000000E+00  0.00000000E+00
  0.00000000E+00  0.00000000E+00  0.00000000E+00
  0.00000000E+00  0.00000000E+00  0.00000000E+00
  0.00000000E+00  0.00000000E+00  0.00000000E+00
  0.00000000E+00  0.00000000E+00  0.00000000E+00
  0.00000000E+00  0.00000000E+00  0.00000000E+00
  0.00000000E+00  0.00000000E+00  0.00000000E+00
  0.00000000E+00  0.00000000E+00  0.00000000E+00
  0.00000000E+00  0.00000000E+00  0.00000000E+00
  0.00000000E+00  0.00000000E+00  0.00000000E+00
  0.00000000E+00  0.00000000E+00  0.00000000E+00
  0.00000000E+00  0.00000000E+00  0.00000000E+00
  0.00000000E+00  0.00000000E+00  0.00000000E+00
  0.00000000E+00  0.00000000E+00  0.00000000E+00
