Pt  C  O  C  O  H                       
    1.000000000000000     
    11.2213408561008308    0.0000000000000000    0.0000000000000000
     1.4026676070126025   10.7740943252779040    0.0000000000000000
     0.0000000000000000    0.0000000000000000   27.7475611781839042
   Pt   C    O    C    O    H 
    56     1     1     1     2     1
Selective dynamics
Direct
  0.0169491525423737  0.8644067796610173  0.3976208246282127   F   F   F
  0.1694915254237301  0.6440677966101660  0.4162352201503552   F   F   F
  0.0720338983050866  0.4237288135593218  0.4348496156724977   F   F   F
  0.2245762711864430  0.2033898305084776  0.4534640111946402   F   F   F
  0.1262693274313723  0.9887785362530364  0.4646901656042571   T   T   T
  0.0285928026237850  0.7730311838942515  0.4925351968758481   T   T   T
  0.1808588208640356  0.5500518833573074  0.5109803145572199   T   T   T
  0.0847868768666152  0.3311941175738682  0.5274589399348873   T   T   T
  0.2381312316156828  0.1026862478020581  0.5403301183112498   T   T   T
  0.1375308814380352  0.8825095966975923  0.5700415075038696   T   T   T
  0.0398500598410711  0.6688048508085289  0.5846229438307963   T   T   T
  0.1925050465988719  0.4600632381656025  0.6076909551288981   T   T   T
  0.0996258417947517  0.2421594482455005  0.6179937943583035   T   T   T
  0.9985797511658403  0.0289719387072296  0.6341009731825633   T   T   T
  0.2669491525423737  0.8644067796610173  0.3976208246282127   F   F   F
  0.4194915254237301  0.6440677966101660  0.4162352201503552   F   F   F
  0.3220338983050866  0.4237288135593218  0.4348496156724977   F   F   F
  0.4745762711864430  0.2033898305084776  0.4534640111946402   F   F   F
  0.3763715764753310  0.9885482302163452  0.4639932036085003   T   T   T
  0.2790226130977602  0.7702656263187981  0.4921596967817130   T   T   T
  0.4341882996304805  0.5460612870623797  0.5112745203219353   T   T   T
  0.3339048995428743  0.3323942830939743  0.5285905540727478   T   T   T
  0.4875361978968313  0.1031088442831893  0.5407826584054510   T   T   T
  0.3912585012109294  0.8800258127661919  0.5679119599776813   T   T   T
  0.2939572316413787  0.6671887845450440  0.5845358448743896   T   T   T
  0.4465595125803289  0.4592283455998409  0.6091896063622271   T   T   T
  0.3414776161951045  0.2416700458853867  0.6191961332225047   T   T   T
  0.2503221461408622  0.0259566851377024  0.6307612632197458   T   T   T
  0.5169491525423737  0.8644067796610173  0.3976208246282127   F   F   F
  0.6694915254237301  0.6440677966101660  0.4162352201503552   F   F   F
  0.5720338983050866  0.4237288135593218  0.4348496156724977   F   F   F
  0.7245762711864430  0.2033898305084776  0.4534640111946402   F   F   F
  0.6264827936157457  0.9882999374384033  0.4641022776435666   T   T   T
  0.5287128653021090  0.7692992398510959  0.4924198298000159   T   T   T
  0.6835376352225168  0.5445587769299584  0.5095409070499983   T   T   T
  0.5839150543411373  0.3261663413345799  0.5295660407940020   T   T   T
  0.7356096174153545  0.1026380343178418  0.5412324204316684   T   T   T
  0.6408385174499330  0.8797723291433622  0.5687113757861298   T   T   T
  0.5452602772541270  0.6657625125064411  0.5852732705005489   T   T   T
  0.7000943759915501  0.4529567325148307  0.6034789151151723   T   T   T
  0.5934325642916328  0.2467248938210980  0.6309183480415843   T   T   T
  0.4948266718713482  0.0295554188127740  0.6306265287095869   T   T   T
  0.7669491525423737  0.8644067796610173  0.3976208246282127   F   F   F
  0.9194915254237301  0.6440677966101660  0.4162352201503552   F   F   F
  0.8220338983050866  0.4237288135593218  0.4348496156724977   F   F   F
  0.9745762711864430  0.2033898305084776  0.4534640111946402   F   F   F
  0.8763420754544273  0.9884161068024446  0.4645678278344626   T   T   T
  0.7786099590056362  0.7705604308142300  0.4924499685613064   T   T   T
  0.9306716227179878  0.5478420812563555  0.5087802609476938   T   T   T
  0.8343615974746644  0.3231887800522050  0.5298312730077750   T   T   T
  0.9869943864544398  0.1017308982129738  0.5411235194815581   T   T   T
  0.8885366211608230  0.8832520872791751  0.5697958797706898   T   T   T
  0.7928024062476227  0.6664194925692747  0.5860655298668875   T   T   T
  0.9428106330672266  0.4541372550312379  0.6021861975190141   T   T   T
  0.8470487903569403  0.2452459744000678  0.6294465133783126   T   T   T
  0.7367711227401984  0.0309727381280280  0.6306120779905413   T   T   T
  0.5106482908093725  0.3845119815095990  0.6712950944844053   T   T   T
  0.5039330075439026  0.4078214467695708  0.7130051032657940   T   T   T
  0.9167582787429918  0.1456017958251954  0.6855006886843864   T   T   T
  0.9179679665362390  0.1476104143502974  0.7281122447016383   T   T   T
  0.1793082823752932  0.4891582230309581  0.6779807973602145   T   T   T
  0.2595326208052734  0.5027084996632607  0.6892230804725636   T   T   T
 
  0.00000000E+00  0.00000000E+00  0.00000000E+00
  0.00000000E+00  0.00000000E+00  0.00000000E+00
  0.00000000E+00  0.00000000E+00  0.00000000E+00
  0.00000000E+00  0.00000000E+00  0.00000000E+00
  0.00000000E+00  0.00000000E+00  0.00000000E+00
  0.00000000E+00  0.00000000E+00  0.00000000E+00
  0.00000000E+00  0.00000000E+00  0.00000000E+00
  0.00000000E+00  0.00000000E+00  0.00000000E+00
  0.00000000E+00  0.00000000E+00  0.00000000E+00
  0.00000000E+00  0.00000000E+00  0.00000000E+00
  0.00000000E+00  0.00000000E+00  0.00000000E+00
  0.00000000E+00  0.00000000E+00  0.00000000E+00
  0.00000000E+00  0.00000000E+00  0.00000000E+00
  0.00000000E+00  0.00000000E+00  0.00000000E+00
  0.00000000E+00  0.00000000E+00  0.00000000E+00
  0.00000000E+00  0.00000000E+00  0.00000000E+00
  0.00000000E+00  0.00000000E+00  0.00000000E+00
  0.00000000E+00  0.00000000E+00  0.00000000E+00
  0.00000000E+00  0.00000000E+00  0.00000000E+00
  0.00000000E+00  0.00000000E+00  0.00000000E+00
  0.00000000E+00  0.00000000E+00  0.00000000E+00
  0.00000000E+00  0.00000000E+00  0.00000000E+00
  0.00000000E+00  0.00000000E+00  0.00000000E+00
  0.00000000E+00  0.00000000E+00  0.00000000E+00
  0.00000000E+00  0.00000000E+00  0.00000000E+00
  0.00000000E+00  0.00000000E+00  0.00000000E+00
  0.00000000E+00  0.00000000E+00  0.00000000E+00
  0.00000000E+00  0.00000000E+00  0.00000000E+00
  0.00000000E+00  0.00000000E+00  0.00000000E+00
  0.00000000E+00  0.00000000E+00  0.00000000E+00
  0.00000000E+00  0.00000000E+00  0.00000000E+00
  0.00000000E+00  0.00000000E+00  0.00000000E+00
  0.00000000E+00  0.00000000E+00  0.00000000E+00
  0.00000000E+00  0.00000000E+00  0.00000000E+00
  0.00000000E+00  0.00000000E+00  0.00000000E+00
  0.00000000E+00  0.00000000E+00  0.00000000E+00
  0.00000000E+00  0.00000000E+00  0.00000000E+00
  0.00000000E+00  0.00000000E+00  0.00000000E+00
  0.00000000E+00  0.00000000E+00  0.00000000E+00
  0.00000000E+00  0.00000000E+00  0.00000000E+00
  0.00000000E+00  0.00000000E+00  0.00000000E+00
  0.00000000E+00  0.00000000E+00  0.00000000E+00
  0.00000000E+00  0.00000000E+00  0.00000000E+00
  0.00000000E+00  0.00000000E+00  0.00000000E+00
  0.00000000E+00  0.00000000E+00  0.00000000E+00
  0.00000000E+00  0.00000000E+00  0.00000000E+00
  0.00000000E+00  0.00000000E+00  0.00000000E+00
  0.00000000E+00  0.00000000E+00  0.00000000E+00
  0.00000000E+00  0.00000000E+00  0.00000000E+00
  0.00000000E+00  0.00000000E+00  0.00000000E+00
  0.00000000E+00  0.00000000E+00  0.00000000E+00
  0.00000000E+00  0.00000000E+00  0.00000000E+00
  0.00000000E+00  0.00000000E+00  0.00000000E+00
  0.00000000E+00  0.00000000E+00  0.00000000E+00
  0.00000000E+00  0.00000000E+00  0.00000000E+00
  0.00000000E+00  0.00000000E+00  0.00000000E+00
  0.00000000E+00  0.00000000E+00  0.00000000E+00
  0.00000000E+00  0.00000000E+00  0.00000000E+00
  0.00000000E+00  0.00000000E+00  0.00000000E+00
  0.00000000E+00  0.00000000E+00  0.00000000E+00
  0.00000000E+00  0.00000000E+00  0.00000000E+00
  0.00000000E+00  0.00000000E+00  0.00000000E+00
