Pt  C  O  C  O  H                       
    1.000000000000000     
    11.2213408561008308    0.0000000000000000    0.0000000000000000
     1.4026676070126025   10.7740943252779040    0.0000000000000000
     0.0000000000000000    0.0000000000000000   27.7475611781839042
   Pt   C    O    C    O    H 
    56     1     1     1     2     1
Selective dynamics
Direct
  0.0169491525423737  0.8644067796610173  0.3976208246282127   F   F   F
  0.1694915254237301  0.6440677966101660  0.4162352201503552   F   F   F
  0.0720338983050866  0.4237288135593218  0.4348496156724977   F   F   F
  0.2245762711864430  0.2033898305084776  0.4534640111946402   F   F   F
  0.1261665131731178  0.9880953362981532  0.4643886327481753   T   T   T
  0.0283609926959076  0.7692643412230510  0.4929560336159794   T   T   T
  0.1818803228957110  0.5529779287062209  0.5124811821839208   T   T   T
  0.0825948498855505  0.3333845217512516  0.5277885623441479   T   T   T
  0.2361580360798462  0.1048601215508618  0.5403033245490698   T   T   T
  0.1399102751425435  0.8832661353705723  0.5668672884408779   T   T   T
  0.0425869604138525  0.6714147276442227  0.5916309550696113   T   T   T
  0.1931917456936445  0.4529225945481367  0.6041557027060735   T   T   T
  0.0975950090893248  0.2401064955251960  0.6195042751177330   T   T   T
  0.9969946774212888  0.0249432130832795  0.6306043057369125   T   T   T
  0.2669491525423737  0.8644067796610173  0.3976208246282127   F   F   F
  0.4194915254237301  0.6440677966101660  0.4162352201503552   F   F   F
  0.3220338983050866  0.4237288135593218  0.4348496156724977   F   F   F
  0.4745762711864430  0.2033898305084776  0.4534640111946402   F   F   F
  0.3765502869928780  0.9871410919444401  0.4647442382699065   T   T   T
  0.2784762266734531  0.7702090470630699  0.4928717164004768   T   T   T
  0.4303217551696900  0.5510565234618214  0.5103007334447687   T   T   T
  0.3334867614553819  0.3318785314406206  0.5270350317111867   T   T   T
  0.4882625990620997  0.1043625984531831  0.5404062882029432   T   T   T
  0.3898074408688407  0.8849804223689870  0.5666497664947424   T   T   T
  0.2933547350098209  0.6688093044013148  0.5919227546156239   T   T   T
  0.4440042292589226  0.4497025997826333  0.6046203095352843   T   T   T
  0.3437748718909697  0.2414178624169812  0.6196981581903331   T   T   T
  0.2469136371822198  0.0269433594880895  0.6305065303384566   T   T   T
  0.5169491525423737  0.8644067796610173  0.3976208246282127   F   F   F
  0.6694915254237301  0.6440677966101660  0.4162352201503552   F   F   F
  0.5720338983050866  0.4237288135593218  0.4348496156724977   F   F   F
  0.7245762711864430  0.2033898305084776  0.4534640111946402   F   F   F
  0.6264595606865889  0.9880621826410746  0.4645190254770299   T   T   T
  0.5288078541324154  0.7693434994392012  0.4929876576220125   T   T   T
  0.6787906298704801  0.5506168687289370  0.5115587456714217   T   T   T
  0.5840797176880426  0.3325399298806043  0.5281108211417369   T   T   T
  0.7376587485468911  0.1062681016166693  0.5409400697960746   T   T   T
  0.6393904223702184  0.8809920178954833  0.5685477238385088   T   T   T
  0.5404692203407176  0.6683864908796053  0.5929258566307155   T   T   T
  0.6923772076935740  0.4551064779931188  0.6093646322677966   T   T   T
  0.5922846967509574  0.2398338087760872  0.6198614616787101   T   T   T
  0.4957580415263044  0.0278594519902130  0.6306823307745253   T   T   T
  0.7669491525423737  0.8644067796610173  0.3976208246282127   F   F   F
  0.9194915254237301  0.6440677966101660  0.4162352201503552   F   F   F
  0.8220338983050866  0.4237288135593218  0.4348496156724977   F   F   F
  0.9745762711864430  0.2033898305084776  0.4534640111946402   F   F   F
  0.8768951908657098  0.9885446861230229  0.4648006036126409   T   T   T
  0.7784798468355900  0.7702847694055642  0.4918170640321294   T   T   T
  0.9323381315636485  0.5511245464093857  0.5121604101885014   T   T   T
  0.8326693412452895  0.3344577471842313  0.5285385625142038   T   T   T
  0.9854126504613823  0.1077889096631431  0.5412579223312732   T   T   T
  0.8884093665211398  0.8825445517998163  0.5667608060390487   T   T   T
  0.7880818886181709  0.6670044524706025  0.5843569393814720   T   T   T
  0.9442084826874027  0.4566672615141089  0.6085497920851685   T   T   T
  0.8464029043642366  0.2403084048206917  0.6248151718680193   T   T   T
  0.7464031362562970  0.0281884841971689  0.6305745108043332   T   T   T
  0.4135871292988993  0.6825392628765331  0.6451080884035412   T   T   T
  0.4095185926779832  0.7025979500892210  0.6870935410371450   T   T   T
  0.8255438999891340  0.4101275470137519  0.6621177274416048   T   T   T
  0.8235373604998739  0.4304863860712950  0.7044322366116287   T   T   T
  0.0264099580033109  0.7311609397643052  0.6597478219507126   T   T   T
  0.1023101688620001  0.7005480539239510  0.6758571327475924   T   T   T
 
  0.00000000E+00  0.00000000E+00  0.00000000E+00
  0.00000000E+00  0.00000000E+00  0.00000000E+00
  0.00000000E+00  0.00000000E+00  0.00000000E+00
  0.00000000E+00  0.00000000E+00  0.00000000E+00
  0.00000000E+00  0.00000000E+00  0.00000000E+00
  0.00000000E+00  0.00000000E+00  0.00000000E+00
  0.00000000E+00  0.00000000E+00  0.00000000E+00
  0.00000000E+00  0.00000000E+00  0.00000000E+00
  0.00000000E+00  0.00000000E+00  0.00000000E+00
  0.00000000E+00  0.00000000E+00  0.00000000E+00
  0.00000000E+00  0.00000000E+00  0.00000000E+00
  0.00000000E+00  0.00000000E+00  0.00000000E+00
  0.00000000E+00  0.00000000E+00  0.00000000E+00
  0.00000000E+00  0.00000000E+00  0.00000000E+00
  0.00000000E+00  0.00000000E+00  0.00000000E+00
  0.00000000E+00  0.00000000E+00  0.00000000E+00
  0.00000000E+00  0.00000000E+00  0.00000000E+00
  0.00000000E+00  0.00000000E+00  0.00000000E+00
  0.00000000E+00  0.00000000E+00  0.00000000E+00
  0.00000000E+00  0.00000000E+00  0.00000000E+00
  0.00000000E+00  0.00000000E+00  0.00000000E+00
  0.00000000E+00  0.00000000E+00  0.00000000E+00
  0.00000000E+00  0.00000000E+00  0.00000000E+00
  0.00000000E+00  0.00000000E+00  0.00000000E+00
  0.00000000E+00  0.00000000E+00  0.00000000E+00
  0.00000000E+00  0.00000000E+00  0.00000000E+00
  0.00000000E+00  0.00000000E+00  0.00000000E+00
  0.00000000E+00  0.00000000E+00  0.00000000E+00
  0.00000000E+00  0.00000000E+00  0.00000000E+00
  0.00000000E+00  0.00000000E+00  0.00000000E+00
  0.00000000E+00  0.00000000E+00  0.00000000E+00
  0.00000000E+00  0.00000000E+00  0.00000000E+00
  0.00000000E+00  0.00000000E+00  0.00000000E+00
  0.00000000E+00  0.00000000E+00  0.00000000E+00
  0.00000000E+00  0.00000000E+00  0.00000000E+00
  0.00000000E+00  0.00000000E+00  0.00000000E+00
  0.00000000E+00  0.00000000E+00  0.00000000E+00
  0.00000000E+00  0.00000000E+00  0.00000000E+00
  0.00000000E+00  0.00000000E+00  0.00000000E+00
  0.00000000E+00  0.00000000E+00  0.00000000E+00
  0.00000000E+00  0.00000000E+00  0.00000000E+00
  0.00000000E+00  0.00000000E+00  0.00000000E+00
  0.00000000E+00  0.00000000E+00  0.00000000E+00
  0.00000000E+00  0.00000000E+00  0.00000000E+00
  0.00000000E+00  0.00000000E+00  0.00000000E+00
  0.00000000E+00  0.00000000E+00  0.00000000E+00
  0.00000000E+00  0.00000000E+00  0.00000000E+00
  0.00000000E+00  0.00000000E+00  0.00000000E+00
  0.00000000E+00  0.00000000E+00  0.00000000E+00
  0.00000000E+00  0.00000000E+00  0.00000000E+00
  0.00000000E+00  0.00000000E+00  0.00000000E+00
  0.00000000E+00  0.00000000E+00  0.00000000E+00
  0.00000000E+00  0.00000000E+00  0.00000000E+00
  0.00000000E+00  0.00000000E+00  0.00000000E+00
  0.00000000E+00  0.00000000E+00  0.00000000E+00
  0.00000000E+00  0.00000000E+00  0.00000000E+00
  0.00000000E+00  0.00000000E+00  0.00000000E+00
  0.00000000E+00  0.00000000E+00  0.00000000E+00
  0.00000000E+00  0.00000000E+00  0.00000000E+00
  0.00000000E+00  0.00000000E+00  0.00000000E+00
  0.00000000E+00  0.00000000E+00  0.00000000E+00
  0.00000000E+00  0.00000000E+00  0.00000000E+00
