Pt  C  O  C  O  H                       
    1.000000000000000     
    11.2213408561008308    0.0000000000000000    0.0000000000000000
     1.4026676070126025   10.7740943252779040    0.0000000000000000
     0.0000000000000000    0.0000000000000000   27.7475611781839042
   Pt   C    O    C    O    H 
    56     1     1     1     2     1
Selective dynamics
Direct
  0.0169491525423737  0.8644067796610173  0.3976208246282127   F   F   F
  0.1694915254237301  0.6440677966101660  0.4162352201503552   F   F   F
  0.0720338983050866  0.4237288135593218  0.4348496156724977   F   F   F
  0.2245762711864430  0.2033898305084776  0.4534640111946402   F   F   F
  0.1256654910432629  0.9880260368061592  0.4663351386743325   T   T   T
  0.0270709403273030  0.7717560970247038  0.4932227535866184   T   T   T
  0.1787345049959204  0.5487601614580501  0.5087399169109338   T   T   T
  0.0829251847894160  0.3232933631794809  0.5263129342346941   T   T   T
  0.2357696579186609  0.0952089703196336  0.5426562998521248   T   T   T
  0.1373293567959447  0.8767570285559215  0.5727473832853427   T   T   T
  0.0384940256448556  0.6599419333927470  0.5863766196872771   T   T   T
  0.1874151225820159  0.4457465479967558  0.6011947443084235   T   T   T
  0.0924550639700602  0.2283912369654002  0.6178986334735780   T   T   T
  0.9936117671500896  0.0156513006938681  0.6389783931589785   T   T   T
  0.2669491525423737  0.8644067796610173  0.3976208246282127   F   F   F
  0.4194915254237301  0.6440677966101660  0.4162352201503552   F   F   F
  0.3220338983050866  0.4237288135593218  0.4348496156724977   F   F   F
  0.4745762711864430  0.2033898305084776  0.4534640111946402   F   F   F
  0.3760542787897059  0.9884231263867849  0.4658817654639888   T   T   T
  0.2770879309249537  0.7718157967886311  0.4926893907876043   T   T   T
  0.4300994792788503  0.5472107785031497  0.5106853069600381   T   T   T
  0.3333256234770065  0.3282780361349870  0.5266718169000631   T   T   T
  0.4871057791532764  0.0948815305098068  0.5428558981819109   T   T   T
  0.3879463518300884  0.8763911148779697  0.5701394425589951   T   T   T
  0.2876765663331594  0.6614871180939499  0.5845053734002890   T   T   T
  0.4411156468312029  0.4489743260202355  0.6059129972794917   T   T   T
  0.3415595944753334  0.2304657297466058  0.6154978900125853   T   T   T
  0.2457930123519908  0.0164591243784322  0.6384227775369564   T   T   T
  0.5169491525423737  0.8644067796610173  0.3976208246282127   F   F   F
  0.6694915254237301  0.6440677966101660  0.4162352201503552   F   F   F
  0.5720338983050866  0.4237288135593218  0.4348496156724977   F   F   F
  0.7245762711864430  0.2033898305084776  0.4534640111946402   F   F   F
  0.6261063708657034  0.9879454054286657  0.4661128939052859   T   T   T
  0.5274096822565039  0.7707699328555438  0.4929033108031367   T   T   T
  0.6812462981422808  0.5476646148567191  0.5089155132926543   T   T   T
  0.5825445852240346  0.3257585250870693  0.5273293896690898   T   T   T
  0.7357378476647660  0.0948351221769432  0.5429777279920671   T   T   T
  0.6382797647737505  0.8769301837693306  0.5727203251233398   T   T   T
  0.5417365153010890  0.6608201315293173  0.5847031293435943   T   T   T
  0.6941631308065539  0.4462384394881163  0.6018589039331003   T   T   T
  0.5951057724471490  0.2277714857974456  0.6172489046202135   T   T   T
  0.4937961618878264  0.0162419354234722  0.6386859192891939   T   T   T
  0.7669491525423737  0.8644067796610173  0.3976208246282127   F   F   F
  0.9194915254237301  0.6440677966101660  0.4162352201503552   F   F   F
  0.8220338983050866  0.4237288135593218  0.4348496156724977   F   F   F
  0.9745762711864430  0.2033898305084776  0.4534640111946402   F   F   F
  0.8756808009743708  0.9881316176859054  0.4660157371882026   T   T   T
  0.7768302038497317  0.7714025235812020  0.4932472715867258   T   T   T
  0.9300590117215956  0.5482243513950026  0.5091460355550086   T   T   T
  0.8330165797911893  0.3243750542237501  0.5260575839000797   T   T   T
  0.9867778064269164  0.0946456121675631  0.5432440810802838   T   T   T
  0.8880021189326130  0.8757673809995191  0.5704703405306447   T   T   T
  0.7905181941108500  0.6605823047687300  0.5865666907009321   T   T   T
  0.9411313170426741  0.4454876855324687  0.6020832707510643   T   T   T
  0.8430934223807540  0.2310429322015503  0.6170829700779829   T   T   T
  0.7467614613175038  0.0160257900076539  0.6388581140969082   T   T   T
  0.3739042698309235  0.9836752599764843  0.6893283903962258   T   T   T
  0.3767040651782763  0.9562570526161378  0.7306199693688772   T   T   T
  0.8760182273554610  0.9676911072663844  0.6881473058674559   T   T   T
  0.8809182453639381  0.9271137991711442  0.7277553843393670   T   T   T
  0.4330549329967838  0.4752899563042344  0.6763808326223726   T   T   T
  0.5158318199237343  0.4787750129172965  0.6872399091114832   T   T   T
 
  0.00000000E+00  0.00000000E+00  0.00000000E+00
  0.00000000E+00  0.00000000E+00  0.00000000E+00
  0.00000000E+00  0.00000000E+00  0.00000000E+00
  0.00000000E+00  0.00000000E+00  0.00000000E+00
  0.00000000E+00  0.00000000E+00  0.00000000E+00
  0.00000000E+00  0.00000000E+00  0.00000000E+00
  0.00000000E+00  0.00000000E+00  0.00000000E+00
  0.00000000E+00  0.00000000E+00  0.00000000E+00
  0.00000000E+00  0.00000000E+00  0.00000000E+00
  0.00000000E+00  0.00000000E+00  0.00000000E+00
  0.00000000E+00  0.00000000E+00  0.00000000E+00
  0.00000000E+00  0.00000000E+00  0.00000000E+00
  0.00000000E+00  0.00000000E+00  0.00000000E+00
  0.00000000E+00  0.00000000E+00  0.00000000E+00
  0.00000000E+00  0.00000000E+00  0.00000000E+00
  0.00000000E+00  0.00000000E+00  0.00000000E+00
  0.00000000E+00  0.00000000E+00  0.00000000E+00
  0.00000000E+00  0.00000000E+00  0.00000000E+00
  0.00000000E+00  0.00000000E+00  0.00000000E+00
  0.00000000E+00  0.00000000E+00  0.00000000E+00
  0.00000000E+00  0.00000000E+00  0.00000000E+00
  0.00000000E+00  0.00000000E+00  0.00000000E+00
  0.00000000E+00  0.00000000E+00  0.00000000E+00
  0.00000000E+00  0.00000000E+00  0.00000000E+00
  0.00000000E+00  0.00000000E+00  0.00000000E+00
  0.00000000E+00  0.00000000E+00  0.00000000E+00
  0.00000000E+00  0.00000000E+00  0.00000000E+00
  0.00000000E+00  0.00000000E+00  0.00000000E+00
  0.00000000E+00  0.00000000E+00  0.00000000E+00
  0.00000000E+00  0.00000000E+00  0.00000000E+00
  0.00000000E+00  0.00000000E+00  0.00000000E+00
  0.00000000E+00  0.00000000E+00  0.00000000E+00
  0.00000000E+00  0.00000000E+00  0.00000000E+00
  0.00000000E+00  0.00000000E+00  0.00000000E+00
  0.00000000E+00  0.00000000E+00  0.00000000E+00
  0.00000000E+00  0.00000000E+00  0.00000000E+00
  0.00000000E+00  0.00000000E+00  0.00000000E+00
  0.00000000E+00  0.00000000E+00  0.00000000E+00
  0.00000000E+00  0.00000000E+00  0.00000000E+00
  0.00000000E+00  0.00000000E+00  0.00000000E+00
  0.00000000E+00  0.00000000E+00  0.00000000E+00
  0.00000000E+00  0.00000000E+00  0.00000000E+00
  0.00000000E+00  0.00000000E+00  0.00000000E+00
  0.00000000E+00  0.00000000E+00  0.00000000E+00
  0.00000000E+00  0.00000000E+00  0.00000000E+00
  0.00000000E+00  0.00000000E+00  0.00000000E+00
  0.00000000E+00  0.00000000E+00  0.00000000E+00
  0.00000000E+00  0.00000000E+00  0.00000000E+00
  0.00000000E+00  0.00000000E+00  0.00000000E+00
  0.00000000E+00  0.00000000E+00  0.00000000E+00
  0.00000000E+00  0.00000000E+00  0.00000000E+00
  0.00000000E+00  0.00000000E+00  0.00000000E+00
  0.00000000E+00  0.00000000E+00  0.00000000E+00
  0.00000000E+00  0.00000000E+00  0.00000000E+00
  0.00000000E+00  0.00000000E+00  0.00000000E+00
  0.00000000E+00  0.00000000E+00  0.00000000E+00
  0.00000000E+00  0.00000000E+00  0.00000000E+00
  0.00000000E+00  0.00000000E+00  0.00000000E+00
  0.00000000E+00  0.00000000E+00  0.00000000E+00
  0.00000000E+00  0.00000000E+00  0.00000000E+00
  0.00000000E+00  0.00000000E+00  0.00000000E+00
  0.00000000E+00  0.00000000E+00  0.00000000E+00
