Pt  C  O  C  O  H                       
    1.000000000000000     
    11.2213408561008308    0.0000000000000000    0.0000000000000000
     1.4026676070126025   10.7740943252779040    0.0000000000000000
     0.0000000000000000    0.0000000000000000   27.7475611781839042
   Pt   C    O    C    O    H 
    56     1     1     1     2     1
Selective dynamics
Direct
  0.0169491525423737  0.8644067796610173  0.3976208246282127   F   F   F
  0.1694915254237301  0.6440677966101660  0.4162352201503552   F   F   F
  0.0720338983050866  0.4237288135593218  0.4348496156724977   F   F   F
  0.2245762711864430  0.2033898305084776  0.4534640111946402   F   F   F
  0.1269916354889303  0.9878498924866137  0.4650140233312483   T   T   T
  0.0281303782019666  0.7697748050435497  0.4924389741495572   T   T   T
  0.1829445141550895  0.5489307583804440  0.5110453632359457   T   T   T
  0.0836423738191202  0.3274429006042368  0.5290914467398283   T   T   T
  0.2374046935815778  0.1055410874460331  0.5413541858657432   T   T   T
  0.1379512005949979  0.8834586190268541  0.5664826098559945   T   T   T
  0.0400628044738004  0.6618644350884100  0.5854042357540643   T   T   T
  0.1917760969728028  0.4497905517078287  0.6038868519833025   T   T   T
  0.0949009514010845  0.2426498416375618  0.6263911211480047   T   T   T
  0.9907990701368586  0.0278127839603480  0.6327919525537911   T   T   T
  0.2669491525423737  0.8644067796610173  0.3976208246282127   F   F   F
  0.4194915254237301  0.6440677966101660  0.4162352201503552   F   F   F
  0.3220338983050866  0.4237288135593218  0.4348496156724977   F   F   F
  0.4745762711864430  0.2033898305084776  0.4534640111946402   F   F   F
  0.3764436439357834  0.9873362887974830  0.4646683381602155   T   T   T
  0.2789934176544596  0.7682237714126207  0.4931031874048282   T   T   T
  0.4313989503522863  0.5509964221534702  0.5116110698742893   T   T   T
  0.3355925795234361  0.3318319737429161  0.5279898641140361   T   T   T
  0.4881272999637125  0.1029016151878958  0.5403789620523411   T   T   T
  0.3895309730430388  0.8812139073942428  0.5673936453817091   T   T   T
  0.2855795134183117  0.6715242195312671  0.5909915430570079   T   T   T
  0.4407063727776529  0.4555548713938097  0.6077893494370300   T   T   T
  0.3495688105545486  0.2413363119113395  0.6195164427486328   T   T   T
  0.2513773012116161  0.0240838684997742  0.6323970015538705   T   T   T
  0.5169491525423737  0.8644067796610173  0.3976208246282127   F   F   F
  0.6694915254237301  0.6440677966101660  0.4162352201503552   F   F   F
  0.5720338983050866  0.4237288135593218  0.4348496156724977   F   F   F
  0.7245762711864430  0.2033898305084776  0.4534640111946402   F   F   F
  0.6265727975638565  0.9869846367592457  0.4648908176809874   T   T   T
  0.5298031516291029  0.7685457190941074  0.4928574861253737   T   T   T
  0.6807246165392220  0.5490728234066509  0.5103041678119221   T   T   T
  0.5833318261973721  0.3326036958701619  0.5279967181468669   T   T   T
  0.7374338371907496  0.1024798738915832  0.5404532289980105   T   T   T
  0.6416659558126496  0.8784429960343570  0.5681299989287292   T   T   T
  0.5430017921319010  0.6693915110914415  0.5894136332510077   T   T   T
  0.6947588899604017  0.4561075545816508  0.6093990124789962   T   T   T
  0.5944617216681901  0.2392377352922031  0.6194193949588612   T   T   T
  0.4976883294646544  0.0244728464028257  0.6303791796212719   T   T   T
  0.7669491525423737  0.8644067796610173  0.3976208246282127   F   F   F
  0.9194915254237301  0.6440677966101660  0.4162352201503552   F   F   F
  0.8220338983050866  0.4237288135593218  0.4348496156724977   F   F   F
  0.9745762711864430  0.2033898305084776  0.4534640111946402   F   F   F
  0.8770253618242762  0.9882858777982342  0.4644620055141103   T   T   T
  0.7792820015782017  0.7692093683315389  0.4922904460875278   T   T   T
  0.9325837487765298  0.5452113343294536  0.5092361372174632   T   T   T
  0.8313468006472162  0.3309476153029471  0.5285309258862939   T   T   T
  0.9862610723919290  0.1033844679202087  0.5413424205076530   T   T   T
  0.8918398621402998  0.8788171415348878  0.5695775780663324   T   T   T
  0.7957306413321089  0.6644418630004318  0.5851837548749936   T   T   T
  0.9437030854341307  0.4506242239731637  0.6050800878022200   T   T   T
  0.8385555556482244  0.2431081407651592  0.6203566897635343   T   T   T
  0.7459164486076412  0.0261612235996614  0.6306909915895603   T   T   T
  0.5558815744867932  0.5520008434805876  0.6498118500472492   T   T   T
  0.5471226448097763  0.5777288325568670  0.6918897531813483   T   T   T
  0.1122072209744734  0.1056818104143535  0.6789715028329787   T   T   T
  0.1130751334880773  0.1023033236252865  0.7220782032342865   T   T   T
  0.2743188682907692  0.7275747596519899  0.6594740138307620   T   T   T
  0.3486694016956342  0.6922835338832243  0.6758104995580216   T   T   T
 
  0.00000000E+00  0.00000000E+00  0.00000000E+00
  0.00000000E+00  0.00000000E+00  0.00000000E+00
  0.00000000E+00  0.00000000E+00  0.00000000E+00
  0.00000000E+00  0.00000000E+00  0.00000000E+00
  0.00000000E+00  0.00000000E+00  0.00000000E+00
  0.00000000E+00  0.00000000E+00  0.00000000E+00
  0.00000000E+00  0.00000000E+00  0.00000000E+00
  0.00000000E+00  0.00000000E+00  0.00000000E+00
  0.00000000E+00  0.00000000E+00  0.00000000E+00
  0.00000000E+00  0.00000000E+00  0.00000000E+00
  0.00000000E+00  0.00000000E+00  0.00000000E+00
  0.00000000E+00  0.00000000E+00  0.00000000E+00
  0.00000000E+00  0.00000000E+00  0.00000000E+00
  0.00000000E+00  0.00000000E+00  0.00000000E+00
  0.00000000E+00  0.00000000E+00  0.00000000E+00
  0.00000000E+00  0.00000000E+00  0.00000000E+00
  0.00000000E+00  0.00000000E+00  0.00000000E+00
  0.00000000E+00  0.00000000E+00  0.00000000E+00
  0.00000000E+00  0.00000000E+00  0.00000000E+00
  0.00000000E+00  0.00000000E+00  0.00000000E+00
  0.00000000E+00  0.00000000E+00  0.00000000E+00
  0.00000000E+00  0.00000000E+00  0.00000000E+00
  0.00000000E+00  0.00000000E+00  0.00000000E+00
  0.00000000E+00  0.00000000E+00  0.00000000E+00
  0.00000000E+00  0.00000000E+00  0.00000000E+00
  0.00000000E+00  0.00000000E+00  0.00000000E+00
  0.00000000E+00  0.00000000E+00  0.00000000E+00
  0.00000000E+00  0.00000000E+00  0.00000000E+00
  0.00000000E+00  0.00000000E+00  0.00000000E+00
  0.00000000E+00  0.00000000E+00  0.00000000E+00
  0.00000000E+00  0.00000000E+00  0.00000000E+00
  0.00000000E+00  0.00000000E+00  0.00000000E+00
  0.00000000E+00  0.00000000E+00  0.00000000E+00
  0.00000000E+00  0.00000000E+00  0.00000000E+00
  0.00000000E+00  0.00000000E+00  0.00000000E+00
  0.00000000E+00  0.00000000E+00  0.00000000E+00
  0.00000000E+00  0.00000000E+00  0.00000000E+00
  0.00000000E+00  0.00000000E+00  0.00000000E+00
  0.00000000E+00  0.00000000E+00  0.00000000E+00
  0.00000000E+00  0.00000000E+00  0.00000000E+00
  0.00000000E+00  0.00000000E+00  0.00000000E+00
  0.00000000E+00  0.00000000E+00  0.00000000E+00
  0.00000000E+00  0.00000000E+00  0.00000000E+00
  0.00000000E+00  0.00000000E+00  0.00000000E+00
  0.00000000E+00  0.00000000E+00  0.00000000E+00
  0.00000000E+00  0.00000000E+00  0.00000000E+00
  0.00000000E+00  0.00000000E+00  0.00000000E+00
  0.00000000E+00  0.00000000E+00  0.00000000E+00
  0.00000000E+00  0.00000000E+00  0.00000000E+00
  0.00000000E+00  0.00000000E+00  0.00000000E+00
  0.00000000E+00  0.00000000E+00  0.00000000E+00
  0.00000000E+00  0.00000000E+00  0.00000000E+00
  0.00000000E+00  0.00000000E+00  0.00000000E+00
  0.00000000E+00  0.00000000E+00  0.00000000E+00
  0.00000000E+00  0.00000000E+00  0.00000000E+00
  0.00000000E+00  0.00000000E+00  0.00000000E+00
  0.00000000E+00  0.00000000E+00  0.00000000E+00
  0.00000000E+00  0.00000000E+00  0.00000000E+00
  0.00000000E+00  0.00000000E+00  0.00000000E+00
  0.00000000E+00  0.00000000E+00  0.00000000E+00
  0.00000000E+00  0.00000000E+00  0.00000000E+00
  0.00000000E+00  0.00000000E+00  0.00000000E+00
