Pt  C  O  C  O  H                       
    1.000000000000000     
    11.2213408561008308    0.0000000000000000    0.0000000000000000
     1.4026676070126025   10.7740943252779040    0.0000000000000000
     0.0000000000000000    0.0000000000000000   27.7475611781839042
   Pt   C    O    C    O    H 
    56     1     1     1     2     1
Selective dynamics
Direct
  0.0169491525423737  0.8644067796610173  0.3976208246282127   F   F   F
  0.1694915254237301  0.6440677966101660  0.4162352201503552   F   F   F
  0.0720338983050866  0.4237288135593218  0.4348496156724977   F   F   F
  0.2245762711864430  0.2033898305084776  0.4534640111946402   F   F   F
  0.1269023771672567  0.9869893649484593  0.4653864638062541   T   T   T
  0.0279883473064521  0.7693646469565913  0.4926906782319224   T   T   T
  0.1813665477989095  0.5460049362457401  0.5094582832310779   T   T   T
  0.0836588795139624  0.3253275672083211  0.5292199007246212   T   T   T
  0.2366088032003331  0.1022774689989377  0.5414209805346740   T   T   T
  0.1393191407234875  0.8782422239342561  0.5685463632021011   T   T   T
  0.0429679942862593  0.6600509773664270  0.5860987564149240   T   T   T
  0.1944362568006753  0.4479454026391285  0.6035713648291174   T   T   T
  0.0941129837178408  0.2431523307609166  0.6268361724780733   T   T   T
  0.9918072925935150  0.0269917847418737  0.6331126077495974   T   T   T
  0.2669491525423737  0.8644067796610173  0.3976208246282127   F   F   F
  0.4194915254237301  0.6440677966101660  0.4162352201503552   F   F   F
  0.3220338983050866  0.4237288135593218  0.4348496156724977   F   F   F
  0.4745762711864430  0.2033898305084776  0.4534640111946402   F   F   F
  0.3777103278479201  0.9880642022691000  0.4656346721913292   T   T   T
  0.2792024760932462  0.7699906671176729  0.4926660385676255   T   T   T
  0.4312438717371945  0.5501962938966010  0.5104284344814188   T   T   T
  0.3361853994741822  0.3293447484349379  0.5274873230064707   T   T   T
  0.4871320547163192  0.1012989373758571  0.5442176954474203   T   T   T
  0.3884325584864684  0.8796655539914792  0.5700503919216072   T   T   T
  0.2883151357681809  0.6643524657064677  0.5857031714384218   T   T   T
  0.4410086674242206  0.4539725112219776  0.6080435710711739   T   T   T
  0.3496486986474869  0.2381373646950480  0.6188839334791709   T   T   T
  0.2466210096464073  0.0246950400156508  0.6328613645210612   T   T   T
  0.5169491525423737  0.8644067796610173  0.3976208246282127   F   F   F
  0.6694915254237301  0.6440677966101660  0.4162352201503552   F   F   F
  0.5720338983050866  0.4237288135593218  0.4348496156724977   F   F   F
  0.7245762711864430  0.2033898305084776  0.4534640111946402   F   F   F
  0.6251479075510947  0.9884702562981017  0.4656616014783540   T   T   T
  0.5290277441221786  0.7698370777547584  0.4935037237968150   T   T   T
  0.6799189032038091  0.5505184805120275  0.5103337687741430   T   T   T
  0.5832038358970126  0.3318247289435594  0.5274549448613414   T   T   T
  0.7380492983390121  0.1018469338185725  0.5406493709367269   T   T   T
  0.6407612081551214  0.8789690836314353  0.5688886072933735   T   T   T
  0.5409046316017648  0.6688523130717334  0.5904421455551511   T   T   T
  0.6934437364183472  0.4531668065965050  0.6076471125694320   T   T   T
  0.5952617503161985  0.2338955117102348  0.6181819474524223   T   T   T
  0.5002354506125333  0.0198623748702726  0.6351662061048430   T   T   T
  0.7669491525423737  0.8644067796610173  0.3976208246282127   F   F   F
  0.9194915254237301  0.6440677966101660  0.4162352201503552   F   F   F
  0.8220338983050866  0.4237288135593218  0.4348496156724977   F   F   F
  0.9745762711864430  0.2033898305084776  0.4534640111946402   F   F   F
  0.8766502555519203  0.9875865684555948  0.4645741689433922   T   T   T
  0.7779847097783290  0.7702303429600295  0.4924824200452746   T   T   T
  0.9322016732832511  0.5453758755218953  0.5094294502476701   T   T   T
  0.8315183296965809  0.3307085016024034  0.5279363400534938   T   T   T
  0.9870111856675918  0.1011152580846698  0.5412376373886469   T   T   T
  0.8932966100724914  0.8771704248340974  0.5695531434138477   T   T   T
  0.7950347691029982  0.6636546616718172  0.5849585074872602   T   T   T
  0.9439547271018238  0.4498201577806316  0.6047114741443578   T   T   T
  0.8397148540642428  0.2422031149125616  0.6197953259349327   T   T   T
  0.7516534567717859  0.0229908989416335  0.6311207522400464   T   T   T
  0.5549823988485120  0.5508643021162468  0.6502397555233709   T   T   T
  0.5533885909749602  0.5717529302556220  0.6925180621542005   T   T   T
  0.1101023268129107  0.1083860122903469  0.6799070572882355   T   T   T
  0.1108044594330424  0.1052117274885094  0.7229895366280995   T   T   T
  0.5038015350447621  0.9580642338202007  0.7015370656410409   T   T   T
  0.5873008293806727  0.9380298055148760  0.7121918643851927   T   T   T
 
  0.00000000E+00  0.00000000E+00  0.00000000E+00
  0.00000000E+00  0.00000000E+00  0.00000000E+00
  0.00000000E+00  0.00000000E+00  0.00000000E+00
  0.00000000E+00  0.00000000E+00  0.00000000E+00
  0.00000000E+00  0.00000000E+00  0.00000000E+00
  0.00000000E+00  0.00000000E+00  0.00000000E+00
  0.00000000E+00  0.00000000E+00  0.00000000E+00
  0.00000000E+00  0.00000000E+00  0.00000000E+00
  0.00000000E+00  0.00000000E+00  0.00000000E+00
  0.00000000E+00  0.00000000E+00  0.00000000E+00
  0.00000000E+00  0.00000000E+00  0.00000000E+00
  0.00000000E+00  0.00000000E+00  0.00000000E+00
  0.00000000E+00  0.00000000E+00  0.00000000E+00
  0.00000000E+00  0.00000000E+00  0.00000000E+00
  0.00000000E+00  0.00000000E+00  0.00000000E+00
  0.00000000E+00  0.00000000E+00  0.00000000E+00
  0.00000000E+00  0.00000000E+00  0.00000000E+00
  0.00000000E+00  0.00000000E+00  0.00000000E+00
  0.00000000E+00  0.00000000E+00  0.00000000E+00
  0.00000000E+00  0.00000000E+00  0.00000000E+00
  0.00000000E+00  0.00000000E+00  0.00000000E+00
  0.00000000E+00  0.00000000E+00  0.00000000E+00
  0.00000000E+00  0.00000000E+00  0.00000000E+00
  0.00000000E+00  0.00000000E+00  0.00000000E+00
  0.00000000E+00  0.00000000E+00  0.00000000E+00
  0.00000000E+00  0.00000000E+00  0.00000000E+00
  0.00000000E+00  0.00000000E+00  0.00000000E+00
  0.00000000E+00  0.00000000E+00  0.00000000E+00
  0.00000000E+00  0.00000000E+00  0.00000000E+00
  0.00000000E+00  0.00000000E+00  0.00000000E+00
  0.00000000E+00  0.00000000E+00  0.00000000E+00
  0.00000000E+00  0.00000000E+00  0.00000000E+00
  0.00000000E+00  0.00000000E+00  0.00000000E+00
  0.00000000E+00  0.00000000E+00  0.00000000E+00
  0.00000000E+00  0.00000000E+00  0.00000000E+00
  0.00000000E+00  0.00000000E+00  0.00000000E+00
  0.00000000E+00  0.00000000E+00  0.00000000E+00
  0.00000000E+00  0.00000000E+00  0.00000000E+00
  0.00000000E+00  0.00000000E+00  0.00000000E+00
  0.00000000E+00  0.00000000E+00  0.00000000E+00
  0.00000000E+00  0.00000000E+00  0.00000000E+00
  0.00000000E+00  0.00000000E+00  0.00000000E+00
  0.00000000E+00  0.00000000E+00  0.00000000E+00
  0.00000000E+00  0.00000000E+00  0.00000000E+00
  0.00000000E+00  0.00000000E+00  0.00000000E+00
  0.00000000E+00  0.00000000E+00  0.00000000E+00
  0.00000000E+00  0.00000000E+00  0.00000000E+00
  0.00000000E+00  0.00000000E+00  0.00000000E+00
  0.00000000E+00  0.00000000E+00  0.00000000E+00
  0.00000000E+00  0.00000000E+00  0.00000000E+00
  0.00000000E+00  0.00000000E+00  0.00000000E+00
  0.00000000E+00  0.00000000E+00  0.00000000E+00
  0.00000000E+00  0.00000000E+00  0.00000000E+00
  0.00000000E+00  0.00000000E+00  0.00000000E+00
  0.00000000E+00  0.00000000E+00  0.00000000E+00
  0.00000000E+00  0.00000000E+00  0.00000000E+00
  0.00000000E+00  0.00000000E+00  0.00000000E+00
  0.00000000E+00  0.00000000E+00  0.00000000E+00
  0.00000000E+00  0.00000000E+00  0.00000000E+00
  0.00000000E+00  0.00000000E+00  0.00000000E+00
  0.00000000E+00  0.00000000E+00  0.00000000E+00
  0.00000000E+00  0.00000000E+00  0.00000000E+00
