Pt  C  O  C  O  H                       
    1.000000000000000     
    11.2213408561008308    0.0000000000000000    0.0000000000000000
     1.4026676070126025   10.7740943252779040    0.0000000000000000
     0.0000000000000000    0.0000000000000000   27.7475611781839042
   Pt   C    O    C    O    H 
    56     1     1     1     2     1
Selective dynamics
Direct
  0.0169491525423737  0.8644067796610173  0.3976208246282127   F   F   F
  0.1694915254237301  0.6440677966101660  0.4162352201503552   F   F   F
  0.0720338983050866  0.4237288135593218  0.4348496156724977   F   F   F
  0.2245762711864430  0.2033898305084776  0.4534640111946402   F   F   F
  0.1265811394905600  0.9887922229852364  0.4656162551143851   T   T   T
  0.0277441613386729  0.7719930280379802  0.4925657136096038   T   T   T
  0.1816845334311735  0.5513282669422133  0.5106075046604986   T   T   T
  0.0844424156640154  0.3285277892432165  0.5263784463212136   T   T   T
  0.2378829766039485  0.1015587453051456  0.5422595986548884   T   T   T
  0.1382630692802875  0.8821094426885335  0.5678566350257902   T   T   T
  0.0390599114621052  0.6653306042450393  0.5851042416756250   T   T   T
  0.1895926228890302  0.4522036570916502  0.6027914156903535   T   T   T
  0.0942993579697528  0.2384561839144068  0.6180146450325333   T   T   T
  0.9968084915583052  0.0223687493606000  0.6369927217569219   T   T   T
  0.2669491525423737  0.8644067796610173  0.3976208246282127   F   F   F
  0.4194915254237301  0.6440677966101660  0.4162352201503552   F   F   F
  0.3220338983050866  0.4237288135593218  0.4348496156724977   F   F   F
  0.4745762711864430  0.2033898305084776  0.4534640111946402   F   F   F
  0.3756994838625234  0.9885677309650603  0.4646279951196126   T   T   T
  0.2792136472462748  0.7691114789561982  0.4935472921317738   T   T   T
  0.4314368148492698  0.5494279637905930  0.5124975466156672   T   T   T
  0.3340229223082206  0.3310929211016362  0.5275028846140618   T   T   T
  0.4870426980871349  0.1032622684696167  0.5414773081183460   T   T   T
  0.3889143406672889  0.8819197413739547  0.5687672855256124   T   T   T
  0.2903551831274742  0.6676968497173591  0.5913920852835208   T   T   T
  0.4436615487871340  0.4545482731769643  0.6086534189412861   T   T   T
  0.3381961384252779  0.2365710026694791  0.6182402971898139   T   T   T
  0.2470242069404613  0.0192881276998121  0.6369646820125208   T   T   T
  0.5169491525423737  0.8644067796610173  0.3976208246282127   F   F   F
  0.6694915254237301  0.6440677966101660  0.4162352201503552   F   F   F
  0.5720338983050866  0.4237288135593218  0.4348496156724977   F   F   F
  0.7245762711864430  0.2033898305084776  0.4534640111946402   F   F   F
  0.6263608901002666  0.9882009805136939  0.4650807785399707   T   T   T
  0.5282396020485128  0.7708082756056528  0.4923240456545153   T   T   T
  0.6820974785566687  0.5471109120357827  0.5088080088117550   T   T   T
  0.5831854109954860  0.3292271049399135  0.5286617487804951   T   T   T
  0.7342946124620259  0.1040463275288496  0.5418509720089340   T   T   T
  0.6403087163123604  0.8804273518113960  0.5693802378250552   T   T   T
  0.5442879044214977  0.6648845907674324  0.5846537210232119   T   T   T
  0.6990621031421117  0.4530280286790296  0.6022303425539709   T   T   T
  0.5961773516348163  0.2432155757799777  0.6280589899750290   T   T   T
  0.4960800969501373  0.0267096501225390  0.6316288606673576   T   T   T
  0.7669491525423737  0.8644067796610173  0.3976208246282127   F   F   F
  0.9194915254237301  0.6440677966101660  0.4162352201503552   F   F   F
  0.8220338983050866  0.4237288135593218  0.4348496156724977   F   F   F
  0.9745762711864430  0.2033898305084776  0.4534640111946402   F   F   F
  0.8766726434886499  0.9890140226863288  0.4648477644925216   T   T   T
  0.7778775823357347  0.7714852180800190  0.4925969425213709   T   T   T
  0.9314490413355421  0.5474958306759541  0.5089774955470756   T   T   T
  0.8343982919742614  0.3261557417072187  0.5273336457510769   T   T   T
  0.9849374935440525  0.1003675561215065  0.5424367396576288   T   T   T
  0.8893345910320484  0.8817020705844653  0.5705572738615010   T   T   T
  0.7928623155732674  0.6655910832351176  0.5854317240614585   T   T   T
  0.9435035651261865  0.4525083719259225  0.6033901523827286   T   T   T
  0.8485894384476969  0.2391422828009636  0.6203704174507041   T   T   T
  0.7444111712679454  0.0295521318894773  0.6321524478942377   T   T   T
  0.5124124681921665  0.3785436589207748  0.6698116280114152   T   T   T
  0.5087468650007486  0.4006490338367861  0.7116201167686373   T   T   T
  0.1238995324687545  0.9921172759623543  0.6877539555962020   T   T   T
  0.1287301354202747  0.9682971503672239  0.7293422887879893   T   T   T
  0.2762027601197586  0.7154570833413532  0.6605619563699053   T   T   T
  0.3502717165943537  0.6778345670066741  0.6763502067736614   T   T   T
 
  0.00000000E+00  0.00000000E+00  0.00000000E+00
  0.00000000E+00  0.00000000E+00  0.00000000E+00
  0.00000000E+00  0.00000000E+00  0.00000000E+00
  0.00000000E+00  0.00000000E+00  0.00000000E+00
  0.00000000E+00  0.00000000E+00  0.00000000E+00
  0.00000000E+00  0.00000000E+00  0.00000000E+00
  0.00000000E+00  0.00000000E+00  0.00000000E+00
  0.00000000E+00  0.00000000E+00  0.00000000E+00
  0.00000000E+00  0.00000000E+00  0.00000000E+00
  0.00000000E+00  0.00000000E+00  0.00000000E+00
  0.00000000E+00  0.00000000E+00  0.00000000E+00
  0.00000000E+00  0.00000000E+00  0.00000000E+00
  0.00000000E+00  0.00000000E+00  0.00000000E+00
  0.00000000E+00  0.00000000E+00  0.00000000E+00
  0.00000000E+00  0.00000000E+00  0.00000000E+00
  0.00000000E+00  0.00000000E+00  0.00000000E+00
  0.00000000E+00  0.00000000E+00  0.00000000E+00
  0.00000000E+00  0.00000000E+00  0.00000000E+00
  0.00000000E+00  0.00000000E+00  0.00000000E+00
  0.00000000E+00  0.00000000E+00  0.00000000E+00
  0.00000000E+00  0.00000000E+00  0.00000000E+00
  0.00000000E+00  0.00000000E+00  0.00000000E+00
  0.00000000E+00  0.00000000E+00  0.00000000E+00
  0.00000000E+00  0.00000000E+00  0.00000000E+00
  0.00000000E+00  0.00000000E+00  0.00000000E+00
  0.00000000E+00  0.00000000E+00  0.00000000E+00
  0.00000000E+00  0.00000000E+00  0.00000000E+00
  0.00000000E+00  0.00000000E+00  0.00000000E+00
  0.00000000E+00  0.00000000E+00  0.00000000E+00
  0.00000000E+00  0.00000000E+00  0.00000000E+00
  0.00000000E+00  0.00000000E+00  0.00000000E+00
  0.00000000E+00  0.00000000E+00  0.00000000E+00
  0.00000000E+00  0.00000000E+00  0.00000000E+00
  0.00000000E+00  0.00000000E+00  0.00000000E+00
  0.00000000E+00  0.00000000E+00  0.00000000E+00
  0.00000000E+00  0.00000000E+00  0.00000000E+00
  0.00000000E+00  0.00000000E+00  0.00000000E+00
  0.00000000E+00  0.00000000E+00  0.00000000E+00
  0.00000000E+00  0.00000000E+00  0.00000000E+00
  0.00000000E+00  0.00000000E+00  0.00000000E+00
  0.00000000E+00  0.00000000E+00  0.00000000E+00
  0.00000000E+00  0.00000000E+00  0.00000000E+00
  0.00000000E+00  0.00000000E+00  0.00000000E+00
  0.00000000E+00  0.00000000E+00  0.00000000E+00
  0.00000000E+00  0.00000000E+00  0.00000000E+00
  0.00000000E+00  0.00000000E+00  0.00000000E+00
  0.00000000E+00  0.00000000E+00  0.00000000E+00
  0.00000000E+00  0.00000000E+00  0.00000000E+00
  0.00000000E+00  0.00000000E+00  0.00000000E+00
  0.00000000E+00  0.00000000E+00  0.00000000E+00
  0.00000000E+00  0.00000000E+00  0.00000000E+00
  0.00000000E+00  0.00000000E+00  0.00000000E+00
  0.00000000E+00  0.00000000E+00  0.00000000E+00
  0.00000000E+00  0.00000000E+00  0.00000000E+00
  0.00000000E+00  0.00000000E+00  0.00000000E+00
  0.00000000E+00  0.00000000E+00  0.00000000E+00
  0.00000000E+00  0.00000000E+00  0.00000000E+00
  0.00000000E+00  0.00000000E+00  0.00000000E+00
  0.00000000E+00  0.00000000E+00  0.00000000E+00
  0.00000000E+00  0.00000000E+00  0.00000000E+00
  0.00000000E+00  0.00000000E+00  0.00000000E+00
  0.00000000E+00  0.00000000E+00  0.00000000E+00
