Pt  C  O  C  O  H                       
    1.000000000000000     
    11.2213408561008308    0.0000000000000000    0.0000000000000000
     1.4026676070126025   10.7740943252779040    0.0000000000000000
     0.0000000000000000    0.0000000000000000   27.7475611781839042
   Pt   C    O    C    O    H 
    56     1     1     1     2     1
Selective dynamics
Direct
  0.0169491525423737  0.8644067796610173  0.3976208246282127   F   F   F
  0.1694915254237301  0.6440677966101660  0.4162352201503552   F   F   F
  0.0720338983050866  0.4237288135593218  0.4348496156724977   F   F   F
  0.2245762711864430  0.2033898305084776  0.4534640111946402   F   F   F
  0.1267598596287611  0.9875244419794361  0.4648766673867470   T   T   T
  0.0285819769237349  0.7700924045610638  0.4923225968983791   T   T   T
  0.1823682818543529  0.5468370259724993  0.5089431483028822   T   T   T
  0.0840661979937441  0.3271500737637514  0.5288752835578704   T   T   T
  0.2367831109110304  0.1030048713009113  0.5409690611435156   T   T   T
  0.1398462719743933  0.8798566377609081  0.5691266366418777   T   T   T
  0.0421901148245658  0.6633875172691636  0.5855409937163684   T   T   T
  0.1945116156292895  0.4543425314004182  0.6023672736381742   T   T   T
  0.0910061725088149  0.2465142590659488  0.6263177108489068   T   T   T
  0.9929585487678599  0.0276321770873588  0.6302882528850681   T   T   T
  0.2669491525423737  0.8644067796610173  0.3976208246282127   F   F   F
  0.4194915254237301  0.6440677966101660  0.4162352201503552   F   F   F
  0.3220338983050866  0.4237288135593218  0.4348496156724977   F   F   F
  0.4745762711864430  0.2033898305084776  0.4534640111946402   F   F   F
  0.3780660984041002  0.9884403259419285  0.4655926448744060   T   T   T
  0.2788795290637244  0.7711742701402352  0.4928202262687407   T   T   T
  0.4306955454990168  0.5496648374192173  0.5105418639248499   T   T   T
  0.3358630760734429  0.3277789467823787  0.5291570239996843   T   T   T
  0.4864794340574177  0.1032431724771138  0.5449544259923282   T   T   T
  0.3892143475009689  0.8819652274193579  0.5702677097356814   T   T   T
  0.2897196750038958  0.6672307481489457  0.5856574325877297   T   T   T
  0.4413643644389836  0.4539940303342950  0.6077497724449865   T   T   T
  0.3465061787494431  0.2408035801857349  0.6247616104127306   T   T   T
  0.2412090491009454  0.0268872597927612  0.6316039073150110   T   T   T
  0.5169491525423737  0.8644067796610173  0.3976208246282127   F   F   F
  0.6694915254237301  0.6440677966101660  0.4162352201503552   F   F   F
  0.5720338983050866  0.4237288135593218  0.4348496156724977   F   F   F
  0.7245762711864430  0.2033898305084776  0.4534640111946402   F   F   F
  0.6250955125768816  0.9890874963396775  0.4654080267305908   T   T   T
  0.5281258900194862  0.7703548747995302  0.4935614548297095   T   T   T
  0.6791135427696855  0.5508248594794499  0.5104679070547675   T   T   T
  0.5830854540863069  0.3318905926577421  0.5273392263404876   T   T   T
  0.7378176741714622  0.1035619138600758  0.5407101243380535   T   T   T
  0.6405141998889052  0.8804957076452294  0.5686728497249971   T   T   T
  0.5412699704753644  0.6700972047341629  0.5907195771184559   T   T   T
  0.6938882292983317  0.4528349612817284  0.6076773876937980   T   T   T
  0.5948809681002210  0.2347158364275191  0.6182521229631260   T   T   T
  0.5053688134366960  0.0198573309188079  0.6352268852978280   T   T   T
  0.7669491525423737  0.8644067796610173  0.3976208246282127   F   F   F
  0.9194915254237301  0.6440677966101660  0.4162352201503552   F   F   F
  0.8220338983050866  0.4237288135593218  0.4348496156724977   F   F   F
  0.9745762711864430  0.2033898305084776  0.4534640111946402   F   F   F
  0.8762199682146126  0.9882396088220102  0.4645717513949045   T   T   T
  0.7779818571782388  0.7706641032910619  0.4924108475467673   T   T   T
  0.9321397813179867  0.5465316519365421  0.5093170734622490   T   T   T
  0.8316800728429544  0.3319410386543210  0.5281947431028942   T   T   T
  0.9872206603171536  0.1040480191096560  0.5407664660661893   T   T   T
  0.8917982596556896  0.8785583964577125  0.5681842209986570   T   T   T
  0.7939528322345691  0.6654023858529430  0.5848872429006491   T   T   T
  0.9430790721286331  0.4540001550617675  0.6045051206687804   T   T   T
  0.8447255340321511  0.2433902622990780  0.6207300114147092   T   T   T
  0.7538659902868623  0.0252590996130721  0.6310814863942987   T   T   T
  0.5562341458271366  0.5509909086942227  0.6501999018552557   T   T   T
  0.5542150671624568  0.5707521322635424  0.6925388834221349   T   T   T
  0.2246400244104634  0.1890679246864269  0.6765917732591166   T   T   T
  0.2257323541880199  0.1970258312298453  0.7194713737961475   T   T   T
  0.5034221988865649  0.9591239331058897  0.7016616666036076   T   T   T
  0.5853053996821524  0.9315216536467342  0.7128565900710715   T   T   T
 
  0.00000000E+00  0.00000000E+00  0.00000000E+00
  0.00000000E+00  0.00000000E+00  0.00000000E+00
  0.00000000E+00  0.00000000E+00  0.00000000E+00
  0.00000000E+00  0.00000000E+00  0.00000000E+00
  0.00000000E+00  0.00000000E+00  0.00000000E+00
  0.00000000E+00  0.00000000E+00  0.00000000E+00
  0.00000000E+00  0.00000000E+00  0.00000000E+00
  0.00000000E+00  0.00000000E+00  0.00000000E+00
  0.00000000E+00  0.00000000E+00  0.00000000E+00
  0.00000000E+00  0.00000000E+00  0.00000000E+00
  0.00000000E+00  0.00000000E+00  0.00000000E+00
  0.00000000E+00  0.00000000E+00  0.00000000E+00
  0.00000000E+00  0.00000000E+00  0.00000000E+00
  0.00000000E+00  0.00000000E+00  0.00000000E+00
  0.00000000E+00  0.00000000E+00  0.00000000E+00
  0.00000000E+00  0.00000000E+00  0.00000000E+00
  0.00000000E+00  0.00000000E+00  0.00000000E+00
  0.00000000E+00  0.00000000E+00  0.00000000E+00
  0.00000000E+00  0.00000000E+00  0.00000000E+00
  0.00000000E+00  0.00000000E+00  0.00000000E+00
  0.00000000E+00  0.00000000E+00  0.00000000E+00
  0.00000000E+00  0.00000000E+00  0.00000000E+00
  0.00000000E+00  0.00000000E+00  0.00000000E+00
  0.00000000E+00  0.00000000E+00  0.00000000E+00
  0.00000000E+00  0.00000000E+00  0.00000000E+00
  0.00000000E+00  0.00000000E+00  0.00000000E+00
  0.00000000E+00  0.00000000E+00  0.00000000E+00
  0.00000000E+00  0.00000000E+00  0.00000000E+00
  0.00000000E+00  0.00000000E+00  0.00000000E+00
  0.00000000E+00  0.00000000E+00  0.00000000E+00
  0.00000000E+00  0.00000000E+00  0.00000000E+00
  0.00000000E+00  0.00000000E+00  0.00000000E+00
  0.00000000E+00  0.00000000E+00  0.00000000E+00
  0.00000000E+00  0.00000000E+00  0.00000000E+00
  0.00000000E+00  0.00000000E+00  0.00000000E+00
  0.00000000E+00  0.00000000E+00  0.00000000E+00
  0.00000000E+00  0.00000000E+00  0.00000000E+00
  0.00000000E+00  0.00000000E+00  0.00000000E+00
  0.00000000E+00  0.00000000E+00  0.00000000E+00
  0.00000000E+00  0.00000000E+00  0.00000000E+00
  0.00000000E+00  0.00000000E+00  0.00000000E+00
  0.00000000E+00  0.00000000E+00  0.00000000E+00
  0.00000000E+00  0.00000000E+00  0.00000000E+00
  0.00000000E+00  0.00000000E+00  0.00000000E+00
  0.00000000E+00  0.00000000E+00  0.00000000E+00
  0.00000000E+00  0.00000000E+00  0.00000000E+00
  0.00000000E+00  0.00000000E+00  0.00000000E+00
  0.00000000E+00  0.00000000E+00  0.00000000E+00
  0.00000000E+00  0.00000000E+00  0.00000000E+00
  0.00000000E+00  0.00000000E+00  0.00000000E+00
  0.00000000E+00  0.00000000E+00  0.00000000E+00
  0.00000000E+00  0.00000000E+00  0.00000000E+00
  0.00000000E+00  0.00000000E+00  0.00000000E+00
  0.00000000E+00  0.00000000E+00  0.00000000E+00
  0.00000000E+00  0.00000000E+00  0.00000000E+00
  0.00000000E+00  0.00000000E+00  0.00000000E+00
  0.00000000E+00  0.00000000E+00  0.00000000E+00
  0.00000000E+00  0.00000000E+00  0.00000000E+00
  0.00000000E+00  0.00000000E+00  0.00000000E+00
  0.00000000E+00  0.00000000E+00  0.00000000E+00
  0.00000000E+00  0.00000000E+00  0.00000000E+00
  0.00000000E+00  0.00000000E+00  0.00000000E+00
