Pt  C  O  C  O  H                       
    1.000000000000000     
    11.2213408561008308    0.0000000000000000    0.0000000000000000
     1.4026676070126025   10.7740943252779040    0.0000000000000000
     0.0000000000000000    0.0000000000000000   27.7475611781839042
   Pt   C    O    C    O    H 
    56     1     1     1     2     1
Selective dynamics
Direct
  0.0169491525423737  0.8644067796610173  0.3976208246282127   F   F   F
  0.1694915254237301  0.6440677966101660  0.4162352201503552   F   F   F
  0.0720338983050866  0.4237288135593218  0.4348496156724977   F   F   F
  0.2245762711864430  0.2033898305084776  0.4534640111946402   F   F   F
  0.1270847480701805  0.9870900632117823  0.4650279656049713   T   T   T
  0.0277045725002132  0.7712258297622854  0.4925210411783740   T   T   T
  0.1821971735669764  0.5506496314628737  0.5099973419777099   T   T   T
  0.0839359205944644  0.3308604420986905  0.5266261783617456   T   T   T
  0.2361277449521187  0.1048238414108605  0.5409733209413753   T   T   T
  0.1394856936654226  0.8794206695621111  0.5688497472269411   T   T   T
  0.0436552721469237  0.6646192679479387  0.5857995347412209   T   T   T
  0.1898089688457426  0.4523718949130883  0.6029057301646289   T   T   T
  0.0933038738873016  0.2419577877655455  0.6198404295229252   T   T   T
  0.9952484726845889  0.0285458344082770  0.6309670422465243   T   T   T
  0.2669491525423737  0.8644067796610173  0.3976208246282127   F   F   F
  0.4194915254237301  0.6440677966101660  0.4162352201503552   F   F   F
  0.3220338983050866  0.4237288135593218  0.4348496156724977   F   F   F
  0.4745762711864430  0.2033898305084776  0.4534640111946402   F   F   F
  0.3773037068332667  0.9886141896392835  0.4657286880753430   T   T   T
  0.2781793119904398  0.7697499112474084  0.4929620102766298   T   T   T
  0.4308537740204029  0.5514006614193006  0.5103770859761951   T   T   T
  0.3353533826528182  0.3310400501715274  0.5274981564007308   T   T   T
  0.4868391163047383  0.1033576723304900  0.5452914314354369   T   T   T
  0.3880112820489427  0.8841875910990789  0.5681701749293808   T   T   T
  0.2900737126961329  0.6690188920422284  0.5912791675963196   T   T   T
  0.4420413848594402  0.4531832796167747  0.6084908341718582   T   T   T
  0.3423685006609789  0.2410159379027115  0.6191715754547876   T   T   T
  0.2397559055216170  0.0270875921400032  0.6311709433286037   T   T   T
  0.5169491525423737  0.8644067796610173  0.3976208246282127   F   F   F
  0.6694915254237301  0.6440677966101660  0.4162352201503552   F   F   F
  0.5720338983050866  0.4237288135593218  0.4348496156724977   F   F   F
  0.7245762711864430  0.2033898305084776  0.4534640111946402   F   F   F
  0.6255499314791138  0.9884971168007949  0.4659220560260309   T   T   T
  0.5279660301910039  0.7712260692832663  0.4932650854719222   T   T   T
  0.6799825707340271  0.5529967116901539  0.5112123668644160   T   T   T
  0.5821486457976500  0.3318582413535593  0.5273312136296989   T   T   T
  0.7368604437546181  0.1052291801458044  0.5412722817085958   T   T   T
  0.6375476372865116  0.8826184181806034  0.5685023649019417   T   T   T
  0.5389405507717465  0.6687024886827035  0.5900168373614715   T   T   T
  0.6951259297267618  0.4524549272977693  0.6025515057342616   T   T   T
  0.5951058057945804  0.2404668013476000  0.6190023541237032   T   T   T
  0.4952695379535619  0.0251452451665977  0.6363426592927286   T   T   T
  0.7669491525423737  0.8644067796610173  0.3976208246282127   F   F   F
  0.9194915254237301  0.6440677966101660  0.4162352201503552   F   F   F
  0.8220338983050866  0.4237288135593218  0.4348496156724977   F   F   F
  0.9745762711864430  0.2033898305084776  0.4534640111946402   F   F   F
  0.8756343887109059  0.9883309775617884  0.4646090122432635   T   T   T
  0.7779371533302878  0.7705827348340516  0.4931441345125540   T   T   T
  0.9294944028320342  0.5513972269720206  0.5107866979983930   T   T   T
  0.8330123695750568  0.3314226246622139  0.5265890741597827   T   T   T
  0.9871677365563881  0.1027664773333417  0.5404233147866959   T   T   T
  0.8904934006082541  0.8811118020157646  0.5675084407233435   T   T   T
  0.7899724838944968  0.6708078359876021  0.5911712247511764   T   T   T
  0.9431515997329261  0.4524521947368565  0.6033734644152173   T   T   T
  0.8435166724332164  0.2409391965774537  0.6190322352400356   T   T   T
  0.7516738733522240  0.0231480738697278  0.6312921681995710   T   T   T
  0.4222704209181857  0.6225975065272219  0.6448325124493850   T   T   T
  0.4210911146481789  0.6480530212552741  0.6868384460758129   T   T   T
  0.4992308372350990  0.9806397633735027  0.7009363925645582   T   T   T
  0.5013807734905454  0.9550189262043357  0.7415544583260074   T   T   T
  0.7885306094202368  0.7248747005431224  0.6600297561678522   T   T   T
  0.7087780183484350  0.7138344163451900  0.6724433677295010   T   T   T
 
  0.00000000E+00  0.00000000E+00  0.00000000E+00
  0.00000000E+00  0.00000000E+00  0.00000000E+00
  0.00000000E+00  0.00000000E+00  0.00000000E+00
  0.00000000E+00  0.00000000E+00  0.00000000E+00
  0.00000000E+00  0.00000000E+00  0.00000000E+00
  0.00000000E+00  0.00000000E+00  0.00000000E+00
  0.00000000E+00  0.00000000E+00  0.00000000E+00
  0.00000000E+00  0.00000000E+00  0.00000000E+00
  0.00000000E+00  0.00000000E+00  0.00000000E+00
  0.00000000E+00  0.00000000E+00  0.00000000E+00
  0.00000000E+00  0.00000000E+00  0.00000000E+00
  0.00000000E+00  0.00000000E+00  0.00000000E+00
  0.00000000E+00  0.00000000E+00  0.00000000E+00
  0.00000000E+00  0.00000000E+00  0.00000000E+00
  0.00000000E+00  0.00000000E+00  0.00000000E+00
  0.00000000E+00  0.00000000E+00  0.00000000E+00
  0.00000000E+00  0.00000000E+00  0.00000000E+00
  0.00000000E+00  0.00000000E+00  0.00000000E+00
  0.00000000E+00  0.00000000E+00  0.00000000E+00
  0.00000000E+00  0.00000000E+00  0.00000000E+00
  0.00000000E+00  0.00000000E+00  0.00000000E+00
  0.00000000E+00  0.00000000E+00  0.00000000E+00
  0.00000000E+00  0.00000000E+00  0.00000000E+00
  0.00000000E+00  0.00000000E+00  0.00000000E+00
  0.00000000E+00  0.00000000E+00  0.00000000E+00
  0.00000000E+00  0.00000000E+00  0.00000000E+00
  0.00000000E+00  0.00000000E+00  0.00000000E+00
  0.00000000E+00  0.00000000E+00  0.00000000E+00
  0.00000000E+00  0.00000000E+00  0.00000000E+00
  0.00000000E+00  0.00000000E+00  0.00000000E+00
  0.00000000E+00  0.00000000E+00  0.00000000E+00
  0.00000000E+00  0.00000000E+00  0.00000000E+00
  0.00000000E+00  0.00000000E+00  0.00000000E+00
  0.00000000E+00  0.00000000E+00  0.00000000E+00
  0.00000000E+00  0.00000000E+00  0.00000000E+00
  0.00000000E+00  0.00000000E+00  0.00000000E+00
  0.00000000E+00  0.00000000E+00  0.00000000E+00
  0.00000000E+00  0.00000000E+00  0.00000000E+00
  0.00000000E+00  0.00000000E+00  0.00000000E+00
  0.00000000E+00  0.00000000E+00  0.00000000E+00
  0.00000000E+00  0.00000000E+00  0.00000000E+00
  0.00000000E+00  0.00000000E+00  0.00000000E+00
  0.00000000E+00  0.00000000E+00  0.00000000E+00
  0.00000000E+00  0.00000000E+00  0.00000000E+00
  0.00000000E+00  0.00000000E+00  0.00000000E+00
  0.00000000E+00  0.00000000E+00  0.00000000E+00
  0.00000000E+00  0.00000000E+00  0.00000000E+00
  0.00000000E+00  0.00000000E+00  0.00000000E+00
  0.00000000E+00  0.00000000E+00  0.00000000E+00
  0.00000000E+00  0.00000000E+00  0.00000000E+00
  0.00000000E+00  0.00000000E+00  0.00000000E+00
  0.00000000E+00  0.00000000E+00  0.00000000E+00
  0.00000000E+00  0.00000000E+00  0.00000000E+00
  0.00000000E+00  0.00000000E+00  0.00000000E+00
  0.00000000E+00  0.00000000E+00  0.00000000E+00
  0.00000000E+00  0.00000000E+00  0.00000000E+00
  0.00000000E+00  0.00000000E+00  0.00000000E+00
  0.00000000E+00  0.00000000E+00  0.00000000E+00
  0.00000000E+00  0.00000000E+00  0.00000000E+00
  0.00000000E+00  0.00000000E+00  0.00000000E+00
  0.00000000E+00  0.00000000E+00  0.00000000E+00
  0.00000000E+00  0.00000000E+00  0.00000000E+00
