Pt  C  O  C  O  H                       
    1.000000000000000     
    11.2213408561008308    0.0000000000000000    0.0000000000000000
     1.4026676070126025   10.7740943252779040    0.0000000000000000
     0.0000000000000000    0.0000000000000000   27.7475611781839042
   Pt   C    O    C    O    H 
    56     1     1     1     2     1
Selective dynamics
Direct
  0.0169491525423737  0.8644067796610173  0.3976208246282127   F   F   F
  0.1694915254237301  0.6440677966101660  0.4162352201503552   F   F   F
  0.0720338983050866  0.4237288135593218  0.4348496156724977   F   F   F
  0.2245762711864430  0.2033898305084776  0.4534640111946402   F   F   F
  0.1261595624281423  0.9874996161073348  0.4652104769433154   T   T   T
  0.0284816446746262  0.7699310024904711  0.4935449344961875   T   T   T
  0.1798753622695106  0.5505292439112314  0.5104682349876188   T   T   T
  0.0827831415272526  0.3333750040688706  0.5279290374351616   T   T   T
  0.2365408786236967  0.1050206743217393  0.5404497696341585   T   T   T
  0.1394515069497560  0.8816153421148557  0.5688621070235026   T   T   T
  0.0410852114738530  0.6721757253356834  0.5913493125549657   T   T   T
  0.1936728290941732  0.4582335166200828  0.6088235268177346   T   T   T
  0.0948374285624450  0.2414489486571182  0.6195914223511286   T   T   T
  0.9969242010423132  0.0296323401508610  0.6309996574432283   T   T   T
  0.2669491525423737  0.8644067796610173  0.3976208246282127   F   F   F
  0.4194915254237301  0.6440677966101660  0.4162352201503552   F   F   F
  0.3220338983050866  0.4237288135593218  0.4348496156724977   F   F   F
  0.4745762711864430  0.2033898305084776  0.4534640111946402   F   F   F
  0.3768799873822993  0.9878124691262333  0.4647749207977975   T   T   T
  0.2778293326497788  0.7712575428229755  0.4923530595260340   T   T   T
  0.4316547343811756  0.5501130206435251  0.5100015888011156   T   T   T
  0.3320071016129943  0.3346838862402921  0.5290321614823437   T   T   T
  0.4857687059841285  0.1070371652520200  0.5407853092536289   T   T   T
  0.3896150249507044  0.8810520978166128  0.5685447217808045   T   T   T
  0.2904600583373821  0.6693810835522529  0.5851259673979303   T   T   T
  0.4405285731556412  0.4575852204862892  0.6071744878374333   T   T   T
  0.3410635188351374  0.2450846487646608  0.6202100733258813   T   T   T
  0.2470479174958986  0.0290194712875819  0.6306668352941300   T   T   T
  0.5169491525423737  0.8644067796610173  0.3976208246282127   F   F   F
  0.6694915254237301  0.6440677966101660  0.4162352201503552   F   F   F
  0.5720338983050866  0.4237288135593218  0.4348496156724977   F   F   F
  0.7245762711864430  0.2033898305084776  0.4534640111946402   F   F   F
  0.6260640750649025  0.9873547971517689  0.4654641668190286   T   T   T
  0.5282148055520183  0.7696915915079189  0.4933369269984782   T   T   T
  0.6798741493105558  0.5497386840198334  0.5100719507065696   T   T   T
  0.5829247984126148  0.3310320606798337  0.5307348987895539   T   T   T
  0.7363283947080833  0.1069673754844921  0.5410675193817349   T   T   T
  0.6393795335134984  0.8822421332758805  0.5683153887341319   T   T   T
  0.5410158982727979  0.6717031968894627  0.5904812359955700   T   T   T
  0.6957012238289469  0.4579790025440145  0.6074797168598981   T   T   T
  0.5961089449478204  0.2423449471951796  0.6243072422721562   T   T   T
  0.4934140845143623  0.0292686598975263  0.6296401930900006   T   T   T
  0.7669491525423737  0.8644067796610173  0.3976208246282127   F   F   F
  0.9194915254237301  0.6440677966101660  0.4162352201503552   F   F   F
  0.8220338983050866  0.4237288135593218  0.4348496156724977   F   F   F
  0.9745762711864430  0.2033898305084776  0.4534640111946402   F   F   F
  0.8763810306484449  0.9878935816717599  0.4650121689831329   T   T   T
  0.7784259370195935  0.7709992050352388  0.4922062503404009   T   T   T
  0.9310229013689674  0.5507098573992737  0.5103917717220253   T   T   T
  0.8332822810653339  0.3342334047347671  0.5290889252839622   T   T   T
  0.9864298933500405  0.1050752065622110  0.5405483422125800   T   T   T
  0.8906900288376015  0.8817064753990760  0.5687732021383362   T   T   T
  0.7917660548165657  0.6699887227886878  0.5848994839636475   T   T   T
  0.9421123838331966  0.4587570944485483  0.6085572002787961   T   T   T
  0.8489444854380099  0.2450440883032330  0.6204999782909402   T   T   T
  0.7497469850388504  0.0283862981444747  0.6298968044994862   T   T   T
  0.5560758808639426  0.5541952820625008  0.6499941781579313   T   T   T
  0.5538005039591444  0.5731321029720183  0.6924270310253554   T   T   T
  0.0558198564418838  0.5547995118492188  0.6514168233427764   T   T   T
  0.0530374583698052  0.5754490004710593  0.6937140345381949   T   T   T
  0.5983569152530348  0.2389723060487304  0.6959390120616508   T   T   T
  0.6611022905408854  0.2890653241748498  0.7055383562344630   T   T   T
 
  0.00000000E+00  0.00000000E+00  0.00000000E+00
  0.00000000E+00  0.00000000E+00  0.00000000E+00
  0.00000000E+00  0.00000000E+00  0.00000000E+00
  0.00000000E+00  0.00000000E+00  0.00000000E+00
  0.00000000E+00  0.00000000E+00  0.00000000E+00
  0.00000000E+00  0.00000000E+00  0.00000000E+00
  0.00000000E+00  0.00000000E+00  0.00000000E+00
  0.00000000E+00  0.00000000E+00  0.00000000E+00
  0.00000000E+00  0.00000000E+00  0.00000000E+00
  0.00000000E+00  0.00000000E+00  0.00000000E+00
  0.00000000E+00  0.00000000E+00  0.00000000E+00
  0.00000000E+00  0.00000000E+00  0.00000000E+00
  0.00000000E+00  0.00000000E+00  0.00000000E+00
  0.00000000E+00  0.00000000E+00  0.00000000E+00
  0.00000000E+00  0.00000000E+00  0.00000000E+00
  0.00000000E+00  0.00000000E+00  0.00000000E+00
  0.00000000E+00  0.00000000E+00  0.00000000E+00
  0.00000000E+00  0.00000000E+00  0.00000000E+00
  0.00000000E+00  0.00000000E+00  0.00000000E+00
  0.00000000E+00  0.00000000E+00  0.00000000E+00
  0.00000000E+00  0.00000000E+00  0.00000000E+00
  0.00000000E+00  0.00000000E+00  0.00000000E+00
  0.00000000E+00  0.00000000E+00  0.00000000E+00
  0.00000000E+00  0.00000000E+00  0.00000000E+00
  0.00000000E+00  0.00000000E+00  0.00000000E+00
  0.00000000E+00  0.00000000E+00  0.00000000E+00
  0.00000000E+00  0.00000000E+00  0.00000000E+00
  0.00000000E+00  0.00000000E+00  0.00000000E+00
  0.00000000E+00  0.00000000E+00  0.00000000E+00
  0.00000000E+00  0.00000000E+00  0.00000000E+00
  0.00000000E+00  0.00000000E+00  0.00000000E+00
  0.00000000E+00  0.00000000E+00  0.00000000E+00
  0.00000000E+00  0.00000000E+00  0.00000000E+00
  0.00000000E+00  0.00000000E+00  0.00000000E+00
  0.00000000E+00  0.00000000E+00  0.00000000E+00
  0.00000000E+00  0.00000000E+00  0.00000000E+00
  0.00000000E+00  0.00000000E+00  0.00000000E+00
  0.00000000E+00  0.00000000E+00  0.00000000E+00
  0.00000000E+00  0.00000000E+00  0.00000000E+00
  0.00000000E+00  0.00000000E+00  0.00000000E+00
  0.00000000E+00  0.00000000E+00  0.00000000E+00
  0.00000000E+00  0.00000000E+00  0.00000000E+00
  0.00000000E+00  0.00000000E+00  0.00000000E+00
  0.00000000E+00  0.00000000E+00  0.00000000E+00
  0.00000000E+00  0.00000000E+00  0.00000000E+00
  0.00000000E+00  0.00000000E+00  0.00000000E+00
  0.00000000E+00  0.00000000E+00  0.00000000E+00
  0.00000000E+00  0.00000000E+00  0.00000000E+00
  0.00000000E+00  0.00000000E+00  0.00000000E+00
  0.00000000E+00  0.00000000E+00  0.00000000E+00
  0.00000000E+00  0.00000000E+00  0.00000000E+00
  0.00000000E+00  0.00000000E+00  0.00000000E+00
  0.00000000E+00  0.00000000E+00  0.00000000E+00
  0.00000000E+00  0.00000000E+00  0.00000000E+00
  0.00000000E+00  0.00000000E+00  0.00000000E+00
  0.00000000E+00  0.00000000E+00  0.00000000E+00
  0.00000000E+00  0.00000000E+00  0.00000000E+00
  0.00000000E+00  0.00000000E+00  0.00000000E+00
  0.00000000E+00  0.00000000E+00  0.00000000E+00
  0.00000000E+00  0.00000000E+00  0.00000000E+00
  0.00000000E+00  0.00000000E+00  0.00000000E+00
  0.00000000E+00  0.00000000E+00  0.00000000E+00
