Pt  C  O  C  O  H                       
    1.000000000000000     
    11.2213408561008308    0.0000000000000000    0.0000000000000000
     1.4026676070126025   10.7740943252779040    0.0000000000000000
     0.0000000000000000    0.0000000000000000   27.7475611781839042
   Pt   C    O    C    O    H 
    56     1     1     1     2     1
Selective dynamics
Direct
  0.0169491525423737  0.8644067796610173  0.3976208246282127   F   F   F
  0.1694915254237301  0.6440677966101660  0.4162352201503552   F   F   F
  0.0720338983050866  0.4237288135593218  0.4348496156724977   F   F   F
  0.2245762711864430  0.2033898305084776  0.4534640111946402   F   F   F
  0.1268219502249385  0.9877670826454136  0.4649997007095659   T   T   T
  0.0276540344361239  0.7716527399097033  0.4926889878895028   T   T   T
  0.1817133307827636  0.5499315637012469  0.5091612343406026   T   T   T
  0.0852441797940525  0.3290268361371589  0.5265436795608640   T   T   T
  0.2373664884066803  0.1036918657840837  0.5411183389035614   T   T   T
  0.1381307230050085  0.8805726629359706  0.5689114807142797   T   T   T
  0.0420813727175047  0.6649637500753972  0.5861352513012136   T   T   T
  0.1909233926066930  0.4532706640935946  0.6030169494296372   T   T   T
  0.0964175954565832  0.2408250766711512  0.6194834946860509   T   T   T
  0.9963588827009063  0.0286049207417153  0.6314174493121879   T   T   T
  0.2669491525423737  0.8644067796610173  0.3976208246282127   F   F   F
  0.4194915254237301  0.6440677966101660  0.4162352201503552   F   F   F
  0.3220338983050866  0.4237288135593218  0.4348496156724977   F   F   F
  0.4745762711864430  0.2033898305084776  0.4534640111946402   F   F   F
  0.3777402810027990  0.9882412418657857  0.4660467317472150   T   T   T
  0.2780976610328240  0.7710665628851328  0.4922806081818877   T   T   T
  0.4312163486143902  0.5521270596628965  0.5104634638733923   T   T   T
  0.3363608688946568  0.3311968043672462  0.5277768657601715   T   T   T
  0.4878879225976696  0.1018345866625905  0.5451767549938441   T   T   T
  0.3883790175544621  0.8822962582150646  0.5688585196282420   T   T   T
  0.2861777652244777  0.6688447205494203  0.5861457639485801   T   T   T
  0.4378157582431424  0.4562233866130014  0.6087687319476244   T   T   T
  0.3447791860175536  0.2400157573023272  0.6189798871164204   T   T   T
  0.2411635082427955  0.0255938239307432  0.6316011870887709   T   T   T
  0.5169491525423737  0.8644067796610173  0.3976208246282127   F   F   F
  0.6694915254237301  0.6440677966101660  0.4162352201503552   F   F   F
  0.5720338983050866  0.4237288135593218  0.4348496156724977   F   F   F
  0.7245762711864430  0.2033898305084776  0.4534640111946402   F   F   F
  0.6252738549194427  0.9884032528686745  0.4661155402958989   T   T   T
  0.5285869456274862  0.7706148077857912  0.4939859057297200   T   T   T
  0.6799713249766925  0.5525340846328510  0.5120114907746801   T   T   T
  0.5828859489352110  0.3334186730295547  0.5280829072565206   T   T   T
  0.7375657606171246  0.1032360401481372  0.5408887131466485   T   T   T
  0.6391268008552483  0.8788371965600451  0.5699808283355485   T   T   T
  0.5382590354947075  0.6696802100378975  0.5925156398456086   T   T   T
  0.7009365609740069  0.4539130680249573  0.6064853732739298   T   T   T
  0.5939013794427482  0.2389712098157146  0.6176002741521670   T   T   T
  0.4964286180535765  0.0223195243264931  0.6365050596486356   T   T   T
  0.7669491525423737  0.8644067796610173  0.3976208246282127   F   F   F
  0.9194915254237301  0.6440677966101660  0.4162352201503552   F   F   F
  0.8220338983050866  0.4237288135593218  0.4348496156724977   F   F   F
  0.9745762711864430  0.2033898305084776  0.4534640111946402   F   F   F
  0.8760731085799812  0.9882531826335712  0.4646674580758254   T   T   T
  0.7782814767235708  0.7723474886990991  0.4922529167873113   T   T   T
  0.9314578297350217  0.5494632554383517  0.5090209214566191   T   T   T
  0.8331887091419939  0.3322494099746208  0.5269514203436166   T   T   T
  0.9875361318359445  0.1015751876733062  0.5403382632314182   T   T   T
  0.8903403421398371  0.8790314985913555  0.5695208227555617   T   T   T
  0.7935223318882332  0.6667177950626539  0.5851426287544944   T   T   T
  0.9479549459184727  0.4524373458311682  0.6029520678382381   T   T   T
  0.8469481371699852  0.2390970572662538  0.6178649700659127   T   T   T
  0.7512857671290064  0.0255991439552572  0.6313157597006390   T   T   T
  0.4634658555218901  0.6009751818945062  0.6513166289248934   T   T   T
  0.4492761820931354  0.6292492241876591  0.6922506419536574   T   T   T
  0.5028003236817178  0.9662274564948320  0.6997608475722442   T   T   T
  0.5072867805322341  0.9308290873099226  0.7392313663515843   T   T   T
  0.7026077040288178  0.4758403381094367  0.6775436427669518   T   T   T
  0.7867165111491620  0.4795372429838895  0.6863850456754022   T   T   T
 
  0.00000000E+00  0.00000000E+00  0.00000000E+00
  0.00000000E+00  0.00000000E+00  0.00000000E+00
  0.00000000E+00  0.00000000E+00  0.00000000E+00
  0.00000000E+00  0.00000000E+00  0.00000000E+00
  0.00000000E+00  0.00000000E+00  0.00000000E+00
  0.00000000E+00  0.00000000E+00  0.00000000E+00
  0.00000000E+00  0.00000000E+00  0.00000000E+00
  0.00000000E+00  0.00000000E+00  0.00000000E+00
  0.00000000E+00  0.00000000E+00  0.00000000E+00
  0.00000000E+00  0.00000000E+00  0.00000000E+00
  0.00000000E+00  0.00000000E+00  0.00000000E+00
  0.00000000E+00  0.00000000E+00  0.00000000E+00
  0.00000000E+00  0.00000000E+00  0.00000000E+00
  0.00000000E+00  0.00000000E+00  0.00000000E+00
  0.00000000E+00  0.00000000E+00  0.00000000E+00
  0.00000000E+00  0.00000000E+00  0.00000000E+00
  0.00000000E+00  0.00000000E+00  0.00000000E+00
  0.00000000E+00  0.00000000E+00  0.00000000E+00
  0.00000000E+00  0.00000000E+00  0.00000000E+00
  0.00000000E+00  0.00000000E+00  0.00000000E+00
  0.00000000E+00  0.00000000E+00  0.00000000E+00
  0.00000000E+00  0.00000000E+00  0.00000000E+00
  0.00000000E+00  0.00000000E+00  0.00000000E+00
  0.00000000E+00  0.00000000E+00  0.00000000E+00
  0.00000000E+00  0.00000000E+00  0.00000000E+00
  0.00000000E+00  0.00000000E+00  0.00000000E+00
  0.00000000E+00  0.00000000E+00  0.00000000E+00
  0.00000000E+00  0.00000000E+00  0.00000000E+00
  0.00000000E+00  0.00000000E+00  0.00000000E+00
  0.00000000E+00  0.00000000E+00  0.00000000E+00
  0.00000000E+00  0.00000000E+00  0.00000000E+00
  0.00000000E+00  0.00000000E+00  0.00000000E+00
  0.00000000E+00  0.00000000E+00  0.00000000E+00
  0.00000000E+00  0.00000000E+00  0.00000000E+00
  0.00000000E+00  0.00000000E+00  0.00000000E+00
  0.00000000E+00  0.00000000E+00  0.00000000E+00
  0.00000000E+00  0.00000000E+00  0.00000000E+00
  0.00000000E+00  0.00000000E+00  0.00000000E+00
  0.00000000E+00  0.00000000E+00  0.00000000E+00
  0.00000000E+00  0.00000000E+00  0.00000000E+00
  0.00000000E+00  0.00000000E+00  0.00000000E+00
  0.00000000E+00  0.00000000E+00  0.00000000E+00
  0.00000000E+00  0.00000000E+00  0.00000000E+00
  0.00000000E+00  0.00000000E+00  0.00000000E+00
  0.00000000E+00  0.00000000E+00  0.00000000E+00
  0.00000000E+00  0.00000000E+00  0.00000000E+00
  0.00000000E+00  0.00000000E+00  0.00000000E+00
  0.00000000E+00  0.00000000E+00  0.00000000E+00
  0.00000000E+00  0.00000000E+00  0.00000000E+00
  0.00000000E+00  0.00000000E+00  0.00000000E+00
  0.00000000E+00  0.00000000E+00  0.00000000E+00
  0.00000000E+00  0.00000000E+00  0.00000000E+00
  0.00000000E+00  0.00000000E+00  0.00000000E+00
  0.00000000E+00  0.00000000E+00  0.00000000E+00
  0.00000000E+00  0.00000000E+00  0.00000000E+00
  0.00000000E+00  0.00000000E+00  0.00000000E+00
  0.00000000E+00  0.00000000E+00  0.00000000E+00
  0.00000000E+00  0.00000000E+00  0.00000000E+00
  0.00000000E+00  0.00000000E+00  0.00000000E+00
  0.00000000E+00  0.00000000E+00  0.00000000E+00
  0.00000000E+00  0.00000000E+00  0.00000000E+00
  0.00000000E+00  0.00000000E+00  0.00000000E+00
