Pt  C  O  C  O  H                       
    1.000000000000000     
    11.2213408561008308    0.0000000000000000    0.0000000000000000
     1.4026676070126025   10.7740943252779040    0.0000000000000000
     0.0000000000000000    0.0000000000000000   27.7475611781839042
   Pt   C    O    C    O    H 
    56     1     1     1     2     1
Selective dynamics
Direct
  0.0169491525423737  0.8644067796610173  0.3976208246282127   F   F   F
  0.1694915254237301  0.6440677966101660  0.4162352201503552   F   F   F
  0.0720338983050866  0.4237288135593218  0.4348496156724977   F   F   F
  0.2245762711864430  0.2033898305084776  0.4534640111946402   F   F   F
  0.1266229555265816  0.9877169804667640  0.4649051000598733   T   T   T
  0.0273017231338663  0.7708255402881108  0.4922084754993633   T   T   T
  0.1814841551929897  0.5519926338887339  0.5122697429718501   T   T   T
  0.0819786916531660  0.3356017640249690  0.5286074912420915   T   T   T
  0.2350759960035895  0.1062346351887442  0.5403943109967093   T   T   T
  0.1388498339362062  0.8816553247008898  0.5684836207705316   T   T   T
  0.0435574223717758  0.6677059339596991  0.5848019476630225   T   T   T
  0.1908273635383086  0.4563381309539108  0.6089801162308986   T   T   T
  0.0906878429359830  0.2415800959578123  0.6187614217898098   T   T   T
  0.9957576840340027  0.0274766275031246  0.6305312738960296   T   T   T
  0.2669491525423737  0.8644067796610173  0.3976208246282127   F   F   F
  0.4194915254237301  0.6440677966101660  0.4162352201503552   F   F   F
  0.3220338983050866  0.4237288135593218  0.4348496156724977   F   F   F
  0.4745762711864430  0.2033898305084776  0.4534640111946402   F   F   F
  0.3764701359094744  0.9878363987738987  0.4645057864696142   T   T   T
  0.2776741134635255  0.7702791841086379  0.4929057019003045   T   T   T
  0.4312463811756467  0.5520280680680340  0.5101519760668302   T   T   T
  0.3327671944681881  0.3338429375125904  0.5277838526411311   T   T   T
  0.4873803823265644  0.1042366177423966  0.5402994878439130   T   T   T
  0.3879140752729820  0.8863878591096932  0.5664424606869334   T   T   T
  0.2915473673150294  0.6698552759443851  0.5918124846016046   T   T   T
  0.4448034412335271  0.4502491023449883  0.6038920232554983   T   T   T
  0.3437386403370474  0.2408471321568807  0.6186756868235944   T   T   T
  0.2448417148812468  0.0292962045923077  0.6306368831769799   T   T   T
  0.5169491525423737  0.8644067796610173  0.3976208246282127   F   F   F
  0.6694915254237301  0.6440677966101660  0.4162352201503552   F   F   F
  0.5720338983050866  0.4237288135593218  0.4348496156724977   F   F   F
  0.7245762711864430  0.2033898305084776  0.4534640111946402   F   F   F
  0.6266240631107322  0.9867220166196193  0.4652375412339811   T   T   T
  0.5284810964690646  0.7702489673318011  0.4933110534676650   T   T   T
  0.6796486147853834  0.5528116603167849  0.5117784590014601   T   T   T
  0.5841214158918263  0.3328720917747506  0.5278726990069095   T   T   T
  0.7368654890432248  0.1042957676662603  0.5407681932050198   T   T   T
  0.6390987334639443  0.8809984009400939  0.5695267791343137   T   T   T
  0.5371565160189828  0.6717285092075417  0.5923243911404232   T   T   T
  0.6904352873113430  0.4550541752140209  0.6084476719532103   T   T   T
  0.5954386231987888  0.2415096629011895  0.6200277566482670   T   T   T
  0.4945438363171623  0.0293370533053485  0.6307478825803501   T   T   T
  0.7669491525423737  0.8644067796610173  0.3976208246282127   F   F   F
  0.9194915254237301  0.6440677966101660  0.4162352201503552   F   F   F
  0.8220338983050866  0.4237288135593218  0.4348496156724977   F   F   F
  0.9745762711864430  0.2033898305084776  0.4534640111946402   F   F   F
  0.8760268912033552  0.9873731725935597  0.4651788119558338   T   T   T
  0.7778296976227618  0.7701527675894690  0.4935007367284259   T   T   T
  0.9283180129877188  0.5512519437894204  0.5104488566422720   T   T   T
  0.8324502833497830  0.3331646887034001  0.5277117097414612   T   T   T
  0.9857091351527382  0.1040920574658466  0.5402834773390721   T   T   T
  0.8887007898818041  0.8793255582126530  0.5695271108772780   T   T   T
  0.7882767036815657  0.6710905802990856  0.5911080036841441   T   T   T
  0.9410996894612885  0.4563337892822430  0.6075202782664798   T   T   T
  0.8434859412484194  0.2388450245075584  0.6193331932592810   T   T   T
  0.7443099124757750  0.0274995850060526  0.6311472713477180   T   T   T
  0.4133747421976704  0.6756797411846509  0.6450876870596908   T   T   T
  0.4105228066245847  0.6899957746493941  0.6874885286048122   T   T   T
  0.8061421029437498  0.5521447721936865  0.6508098560902179   T   T   T
  0.8035590632035484  0.5726666456495677  0.6930976821293009   T   T   T
  0.1848833494961048  0.4814732307483702  0.6796424822616439   T   T   T
  0.2646372909947030  0.4994381217484618  0.6897773562145937   T   T   T
 
  0.00000000E+00  0.00000000E+00  0.00000000E+00
  0.00000000E+00  0.00000000E+00  0.00000000E+00
  0.00000000E+00  0.00000000E+00  0.00000000E+00
  0.00000000E+00  0.00000000E+00  0.00000000E+00
  0.00000000E+00  0.00000000E+00  0.00000000E+00
  0.00000000E+00  0.00000000E+00  0.00000000E+00
  0.00000000E+00  0.00000000E+00  0.00000000E+00
  0.00000000E+00  0.00000000E+00  0.00000000E+00
  0.00000000E+00  0.00000000E+00  0.00000000E+00
  0.00000000E+00  0.00000000E+00  0.00000000E+00
  0.00000000E+00  0.00000000E+00  0.00000000E+00
  0.00000000E+00  0.00000000E+00  0.00000000E+00
  0.00000000E+00  0.00000000E+00  0.00000000E+00
  0.00000000E+00  0.00000000E+00  0.00000000E+00
  0.00000000E+00  0.00000000E+00  0.00000000E+00
  0.00000000E+00  0.00000000E+00  0.00000000E+00
  0.00000000E+00  0.00000000E+00  0.00000000E+00
  0.00000000E+00  0.00000000E+00  0.00000000E+00
  0.00000000E+00  0.00000000E+00  0.00000000E+00
  0.00000000E+00  0.00000000E+00  0.00000000E+00
  0.00000000E+00  0.00000000E+00  0.00000000E+00
  0.00000000E+00  0.00000000E+00  0.00000000E+00
  0.00000000E+00  0.00000000E+00  0.00000000E+00
  0.00000000E+00  0.00000000E+00  0.00000000E+00
  0.00000000E+00  0.00000000E+00  0.00000000E+00
  0.00000000E+00  0.00000000E+00  0.00000000E+00
  0.00000000E+00  0.00000000E+00  0.00000000E+00
  0.00000000E+00  0.00000000E+00  0.00000000E+00
  0.00000000E+00  0.00000000E+00  0.00000000E+00
  0.00000000E+00  0.00000000E+00  0.00000000E+00
  0.00000000E+00  0.00000000E+00  0.00000000E+00
  0.00000000E+00  0.00000000E+00  0.00000000E+00
  0.00000000E+00  0.00000000E+00  0.00000000E+00
  0.00000000E+00  0.00000000E+00  0.00000000E+00
  0.00000000E+00  0.00000000E+00  0.00000000E+00
  0.00000000E+00  0.00000000E+00  0.00000000E+00
  0.00000000E+00  0.00000000E+00  0.00000000E+00
  0.00000000E+00  0.00000000E+00  0.00000000E+00
  0.00000000E+00  0.00000000E+00  0.00000000E+00
  0.00000000E+00  0.00000000E+00  0.00000000E+00
  0.00000000E+00  0.00000000E+00  0.00000000E+00
  0.00000000E+00  0.00000000E+00  0.00000000E+00
  0.00000000E+00  0.00000000E+00  0.00000000E+00
  0.00000000E+00  0.00000000E+00  0.00000000E+00
  0.00000000E+00  0.00000000E+00  0.00000000E+00
  0.00000000E+00  0.00000000E+00  0.00000000E+00
  0.00000000E+00  0.00000000E+00  0.00000000E+00
  0.00000000E+00  0.00000000E+00  0.00000000E+00
  0.00000000E+00  0.00000000E+00  0.00000000E+00
  0.00000000E+00  0.00000000E+00  0.00000000E+00
  0.00000000E+00  0.00000000E+00  0.00000000E+00
  0.00000000E+00  0.00000000E+00  0.00000000E+00
  0.00000000E+00  0.00000000E+00  0.00000000E+00
  0.00000000E+00  0.00000000E+00  0.00000000E+00
  0.00000000E+00  0.00000000E+00  0.00000000E+00
  0.00000000E+00  0.00000000E+00  0.00000000E+00
  0.00000000E+00  0.00000000E+00  0.00000000E+00
  0.00000000E+00  0.00000000E+00  0.00000000E+00
  0.00000000E+00  0.00000000E+00  0.00000000E+00
  0.00000000E+00  0.00000000E+00  0.00000000E+00
  0.00000000E+00  0.00000000E+00  0.00000000E+00
  0.00000000E+00  0.00000000E+00  0.00000000E+00
