Pt  C  O  C  O  H                       
    1.000000000000000     
    11.2213408561008308    0.0000000000000000    0.0000000000000000
     1.4026676070126025   10.7740943252779040    0.0000000000000000
     0.0000000000000000    0.0000000000000000   27.7475611781839042
   Pt   C    O    C    O    H 
    56     1     1     1     2     1
Selective dynamics
Direct
  0.0169491525423737  0.8644067796610173  0.3976208246282127   F   F   F
  0.1694915254237301  0.6440677966101660  0.4162352201503552   F   F   F
  0.0720338983050866  0.4237288135593218  0.4348496156724977   F   F   F
  0.2245762711864430  0.2033898305084776  0.4534640111946402   F   F   F
  0.1265279373492008  0.9880925333920881  0.4645718525183649   T   T   T
  0.0279851429355822  0.7712489990066045  0.4923072988452912   T   T   T
  0.1800659464309295  0.5468866599840894  0.5112167315844551   T   T   T
  0.0842798177531640  0.3285155433901659  0.5300329207782087   T   T   T
  0.2368268355485615  0.1029227732766676  0.5406617644638873   T   T   T
  0.1393072220201334  0.8797099223901921  0.5687285521806759   T   T   T
  0.0403268886225989  0.6671347588667058  0.5846114248235164   T   T   T
  0.1915073850895163  0.4572978933510103  0.6087347273164688   T   T   T
  0.0963076897879814  0.2417944365408245  0.6252391242102233   T   T   T
  0.9966794500579499  0.0256826450580733  0.6310508536027782   T   T   T
  0.2669491525423737  0.8644067796610173  0.3976208246282127   F   F   F
  0.4194915254237301  0.6440677966101660  0.4162352201503552   F   F   F
  0.3220338983050866  0.4237288135593218  0.4348496156724977   F   F   F
  0.4745762711864430  0.2033898305084776  0.4534640111946402   F   F   F
  0.3764999890889864  0.9886247738743356  0.4637705163474511   T   T   T
  0.2787800446900936  0.7684026983135311  0.4918897352412576   T   T   T
  0.4333044103920162  0.5444587286831186  0.5112669982876816   T   T   T
  0.3335685621989833  0.3302844792082429  0.5289215539210735   T   T   T
  0.4870588698387134  0.1024059533469599  0.5407745586040587   T   T   T
  0.3912487081995271  0.8786389725718713  0.5674296018712287   T   T   T
  0.2938702935297389  0.6647313284890459  0.5844757368181681   T   T   T
  0.4460303162426472  0.4562235971702261  0.6090715748259896   T   T   T
  0.3400216204537049  0.2396470650849343  0.6200516843171480   T   T   T
  0.2513224329215660  0.0230675287487187  0.6300273803048808   T   T   T
  0.5169491525423737  0.8644067796610173  0.3976208246282127   F   F   F
  0.6694915254237301  0.6440677966101660  0.4162352201503552   F   F   F
  0.5720338983050866  0.4237288135593218  0.4348496156724977   F   F   F
  0.7245762711864430  0.2033898305084776  0.4534640111946402   F   F   F
  0.6265038932930023  0.9883849508949789  0.4641847415278204   T   T   T
  0.5288276029155290  0.7684263926674575  0.4921966552421759   T   T   T
  0.6829874062141649  0.5444135286039375  0.5094805442767552   T   T   T
  0.5837416070455332  0.3259336453976307  0.5293580794572295   T   T   T
  0.7357194264054560  0.1028861952158528  0.5414479260284639   T   T   T
  0.6400444467355497  0.8789643390406383  0.5683207891348491   T   T   T
  0.5437365137214113  0.6646680277111405  0.5852919858184452   T   T   T
  0.6983617780130896  0.4536920292825030  0.6035392506025632   T   T   T
  0.5959388714141638  0.2440001424821452  0.6301216191733855   T   T   T
  0.4954875551055007  0.0280339100788780  0.6304906038841468   T   T   T
  0.7669491525423737  0.8644067796610173  0.3976208246282127   F   F   F
  0.9194915254237301  0.6440677966101660  0.4162352201503552   F   F   F
  0.8220338983050866  0.4237288135593218  0.4348496156724977   F   F   F
  0.9745762711864430  0.2033898305084776  0.4534640111946402   F   F   F
  0.8760869161713070  0.9882797629354507  0.4641088593974384   T   T   T
  0.7784941957738525  0.7699807738734991  0.4924155608718666   T   T   T
  0.9309660307457730  0.5461245834959244  0.5087065144731220   T   T   T
  0.8339071997711788  0.3237615788987727  0.5291779943216571   T   T   T
  0.9866621578003875  0.1016680981124082  0.5405795328874674   T   T   T
  0.8883003113338875  0.8812796024040414  0.5695804201182896   T   T   T
  0.7913952556927940  0.6661971680932263  0.5860891027851627   T   T   T
  0.9414132667758721  0.4553583470780780  0.6019477402612464   T   T   T
  0.8445440668559646  0.2446253122317279  0.6278819590549265   T   T   T
  0.7396887275173806  0.0289197777936556  0.6306328446569998   T   T   T
  0.5136993569598820  0.3818374462672743  0.6707735213211623   T   T   T
  0.5086689578055495  0.4055652196050971  0.7124720125137346   T   T   T
  0.9779723297650407  0.1864763203077431  0.6773541633100945   T   T   T
  0.9813692293411266  0.1916315916185158  0.7203312626592721   T   T   T
  0.1844496480178138  0.4952510305349571  0.6786185495977658   T   T   T
  0.2670171201530984  0.5029147958784739  0.6887079651205474   T   T   T
 
  0.00000000E+00  0.00000000E+00  0.00000000E+00
  0.00000000E+00  0.00000000E+00  0.00000000E+00
  0.00000000E+00  0.00000000E+00  0.00000000E+00
  0.00000000E+00  0.00000000E+00  0.00000000E+00
  0.00000000E+00  0.00000000E+00  0.00000000E+00
  0.00000000E+00  0.00000000E+00  0.00000000E+00
  0.00000000E+00  0.00000000E+00  0.00000000E+00
  0.00000000E+00  0.00000000E+00  0.00000000E+00
  0.00000000E+00  0.00000000E+00  0.00000000E+00
  0.00000000E+00  0.00000000E+00  0.00000000E+00
  0.00000000E+00  0.00000000E+00  0.00000000E+00
  0.00000000E+00  0.00000000E+00  0.00000000E+00
  0.00000000E+00  0.00000000E+00  0.00000000E+00
  0.00000000E+00  0.00000000E+00  0.00000000E+00
  0.00000000E+00  0.00000000E+00  0.00000000E+00
  0.00000000E+00  0.00000000E+00  0.00000000E+00
  0.00000000E+00  0.00000000E+00  0.00000000E+00
  0.00000000E+00  0.00000000E+00  0.00000000E+00
  0.00000000E+00  0.00000000E+00  0.00000000E+00
  0.00000000E+00  0.00000000E+00  0.00000000E+00
  0.00000000E+00  0.00000000E+00  0.00000000E+00
  0.00000000E+00  0.00000000E+00  0.00000000E+00
  0.00000000E+00  0.00000000E+00  0.00000000E+00
  0.00000000E+00  0.00000000E+00  0.00000000E+00
  0.00000000E+00  0.00000000E+00  0.00000000E+00
  0.00000000E+00  0.00000000E+00  0.00000000E+00
  0.00000000E+00  0.00000000E+00  0.00000000E+00
  0.00000000E+00  0.00000000E+00  0.00000000E+00
  0.00000000E+00  0.00000000E+00  0.00000000E+00
  0.00000000E+00  0.00000000E+00  0.00000000E+00
  0.00000000E+00  0.00000000E+00  0.00000000E+00
  0.00000000E+00  0.00000000E+00  0.00000000E+00
  0.00000000E+00  0.00000000E+00  0.00000000E+00
  0.00000000E+00  0.00000000E+00  0.00000000E+00
  0.00000000E+00  0.00000000E+00  0.00000000E+00
  0.00000000E+00  0.00000000E+00  0.00000000E+00
  0.00000000E+00  0.00000000E+00  0.00000000E+00
  0.00000000E+00  0.00000000E+00  0.00000000E+00
  0.00000000E+00  0.00000000E+00  0.00000000E+00
  0.00000000E+00  0.00000000E+00  0.00000000E+00
  0.00000000E+00  0.00000000E+00  0.00000000E+00
  0.00000000E+00  0.00000000E+00  0.00000000E+00
  0.00000000E+00  0.00000000E+00  0.00000000E+00
  0.00000000E+00  0.00000000E+00  0.00000000E+00
  0.00000000E+00  0.00000000E+00  0.00000000E+00
  0.00000000E+00  0.00000000E+00  0.00000000E+00
  0.00000000E+00  0.00000000E+00  0.00000000E+00
  0.00000000E+00  0.00000000E+00  0.00000000E+00
  0.00000000E+00  0.00000000E+00  0.00000000E+00
  0.00000000E+00  0.00000000E+00  0.00000000E+00
  0.00000000E+00  0.00000000E+00  0.00000000E+00
  0.00000000E+00  0.00000000E+00  0.00000000E+00
  0.00000000E+00  0.00000000E+00  0.00000000E+00
  0.00000000E+00  0.00000000E+00  0.00000000E+00
  0.00000000E+00  0.00000000E+00  0.00000000E+00
  0.00000000E+00  0.00000000E+00  0.00000000E+00
  0.00000000E+00  0.00000000E+00  0.00000000E+00
  0.00000000E+00  0.00000000E+00  0.00000000E+00
  0.00000000E+00  0.00000000E+00  0.00000000E+00
  0.00000000E+00  0.00000000E+00  0.00000000E+00
  0.00000000E+00  0.00000000E+00  0.00000000E+00
  0.00000000E+00  0.00000000E+00  0.00000000E+00
