Pt  C  O  C  O  H                       
    1.000000000000000     
    11.2213408561008308    0.0000000000000000    0.0000000000000000
     1.4026676070126025   10.7740943252779040    0.0000000000000000
     0.0000000000000000    0.0000000000000000   27.7475611781839042
   Pt   C    O    C    O    H 
    56     1     1     1     2     1
Selective dynamics
Direct
  0.0169491525423737  0.8644067796610173  0.3976208246282127   F   F   F
  0.1694915254237301  0.6440677966101660  0.4162352201503552   F   F   F
  0.0720338983050866  0.4237288135593218  0.4348496156724977   F   F   F
  0.2245762711864430  0.2033898305084776  0.4534640111946402   F   F   F
  0.1272404732355751  0.9891486107655406  0.4657026347145574   T   T   T
  0.0277687392487428  0.7713849803851164  0.4928074943737041   T   T   T
  0.1821561834814675  0.5544703764654371  0.5122423352960106   T   T   T
  0.0831681733642845  0.3299586800710971  0.5268820016698260   T   T   T
  0.2347729727849169  0.1039446239407351  0.5445898314490152   T   T   T
  0.1392323639529034  0.8805427767518980  0.5689772014493810   T   T   T
  0.0404464105851332  0.6671478927999956  0.5881618051679595   T   T   T
  0.1887667234635769  0.4525134617789368  0.6047044998469612   T   T   T
  0.0926737536495143  0.2405736784645164  0.6190076423560795   T   T   T
  0.9922691263721959  0.0263808980396328  0.6318043375918022   T   T   T
  0.2669491525423737  0.8644067796610173  0.3976208246282127   F   F   F
  0.4194915254237301  0.6440677966101660  0.4162352201503552   F   F   F
  0.3220338983050866  0.4237288135593218  0.4348496156724977   F   F   F
  0.4745762711864430  0.2033898305084776  0.4534640111946402   F   F   F
  0.3753482313907596  0.9904536646452130  0.4643921566052999   T   T   T
  0.2775508503163289  0.7735115110893904  0.4924480447640915   T   T   T
  0.4314307081381758  0.5505769888980714  0.5081400544179477   T   T   T
  0.3304384115165341  0.3300263744492965  0.5260443915564987   T   T   T
  0.4881924502214763  0.1058124621521676  0.5410037142678139   T   T   T
  0.3896274796134260  0.8863003155893335  0.5648668608244140   T   T   T
  0.2894568102567702  0.6642423660171497  0.5883387183869513   T   T   T
  0.4408807212632281  0.4476508585647403  0.5985505611439392   T   T   T
  0.3390066138249358  0.2389189017842436  0.6182600397047507   T   T   T
  0.2464296039044264  0.0220938005899928  0.6352519224074442   T   T   T
  0.5169491525423737  0.8644067796610173  0.3976208246282127   F   F   F
  0.6694915254237301  0.6440677966101660  0.4162352201503552   F   F   F
  0.5720338983050866  0.4237288135593218  0.4348496156724977   F   F   F
  0.7245762711864430  0.2033898305084776  0.4534640111946402   F   F   F
  0.6260291560403749  0.9883350198950253  0.4646895480578017   T   T   T
  0.5294932263132821  0.7717580890266840  0.4919365070376267   T   T   T
  0.6783203786145746  0.5499947272842326  0.5116431165762232   T   T   T
  0.5879369515091415  0.3253829348174282  0.5314650232676843   T   T   T
  0.7384670096841754  0.1008604018866959  0.5407557935839141   T   T   T
  0.6412583182307097  0.8786180870585883  0.5683950222031917   T   T   T
  0.5429433181643274  0.6622578243183692  0.5877483547435212   T   T   T
  0.7003717260384870  0.4546445086026986  0.6048288702076360   T   T   T
  0.5949870307530338  0.2485627486510191  0.6283739709129331   T   T   T
  0.5005642410864111  0.0247547073823897  0.6293408748093003   T   T   T
  0.7669491525423737  0.8644067796610173  0.3976208246282127   F   F   F
  0.9194915254237301  0.6440677966101660  0.4162352201503552   F   F   F
  0.8220338983050866  0.4237288135593218  0.4348496156724977   F   F   F
  0.9745762711864430  0.2033898305084776  0.4534640111946402   F   F   F
  0.8768885003750183  0.9888904725768426  0.4637296930899302   T   T   T
  0.7790901827117569  0.7707823816167200  0.4925086721669241   T   T   T
  0.9315186301471163  0.5496012859755812  0.5097635812099193   T   T   T
  0.8358817088868330  0.3293032837569640  0.5276462125176784   T   T   T
  0.9856107690954912  0.1011395905287887  0.5410985238663670   T   T   T
  0.8900407173863805  0.8795641801285463  0.5689111108097630   T   T   T
  0.7943990353170728  0.6658785195258917  0.5864674467252274   T   T   T
  0.9440768462180965  0.4560035279007552  0.6045568165407981   T   T   T
  0.8503746313721570  0.2426858528678198  0.6206986774862268   T   T   T
  0.7482191880124655  0.0277419028967026  0.6303684810774650   T   T   T
  0.5929841017007209  0.2571847026350065  0.6944806086249659   T   T   T
  0.5906074866303169  0.2699033798095647  0.7359736926778304   T   T   T
  0.2560312044381832  0.9696144909795904  0.6988570183127831   T   T   T
  0.2616083906130722  0.9383986993983442  0.7388963071721466   T   T   T
  0.4108731541956969  0.7007461228095905  0.6456083099916545   T   T   T
  0.4198375518802818  0.6254199593689876  0.6656281638756891   T   T   T
 
  0.00000000E+00  0.00000000E+00  0.00000000E+00
  0.00000000E+00  0.00000000E+00  0.00000000E+00
  0.00000000E+00  0.00000000E+00  0.00000000E+00
  0.00000000E+00  0.00000000E+00  0.00000000E+00
  0.00000000E+00  0.00000000E+00  0.00000000E+00
  0.00000000E+00  0.00000000E+00  0.00000000E+00
  0.00000000E+00  0.00000000E+00  0.00000000E+00
  0.00000000E+00  0.00000000E+00  0.00000000E+00
  0.00000000E+00  0.00000000E+00  0.00000000E+00
  0.00000000E+00  0.00000000E+00  0.00000000E+00
  0.00000000E+00  0.00000000E+00  0.00000000E+00
  0.00000000E+00  0.00000000E+00  0.00000000E+00
  0.00000000E+00  0.00000000E+00  0.00000000E+00
  0.00000000E+00  0.00000000E+00  0.00000000E+00
  0.00000000E+00  0.00000000E+00  0.00000000E+00
  0.00000000E+00  0.00000000E+00  0.00000000E+00
  0.00000000E+00  0.00000000E+00  0.00000000E+00
  0.00000000E+00  0.00000000E+00  0.00000000E+00
  0.00000000E+00  0.00000000E+00  0.00000000E+00
  0.00000000E+00  0.00000000E+00  0.00000000E+00
  0.00000000E+00  0.00000000E+00  0.00000000E+00
  0.00000000E+00  0.00000000E+00  0.00000000E+00
  0.00000000E+00  0.00000000E+00  0.00000000E+00
  0.00000000E+00  0.00000000E+00  0.00000000E+00
  0.00000000E+00  0.00000000E+00  0.00000000E+00
  0.00000000E+00  0.00000000E+00  0.00000000E+00
  0.00000000E+00  0.00000000E+00  0.00000000E+00
  0.00000000E+00  0.00000000E+00  0.00000000E+00
  0.00000000E+00  0.00000000E+00  0.00000000E+00
  0.00000000E+00  0.00000000E+00  0.00000000E+00
  0.00000000E+00  0.00000000E+00  0.00000000E+00
  0.00000000E+00  0.00000000E+00  0.00000000E+00
  0.00000000E+00  0.00000000E+00  0.00000000E+00
  0.00000000E+00  0.00000000E+00  0.00000000E+00
  0.00000000E+00  0.00000000E+00  0.00000000E+00
  0.00000000E+00  0.00000000E+00  0.00000000E+00
  0.00000000E+00  0.00000000E+00  0.00000000E+00
  0.00000000E+00  0.00000000E+00  0.00000000E+00
  0.00000000E+00  0.00000000E+00  0.00000000E+00
  0.00000000E+00  0.00000000E+00  0.00000000E+00
  0.00000000E+00  0.00000000E+00  0.00000000E+00
  0.00000000E+00  0.00000000E+00  0.00000000E+00
  0.00000000E+00  0.00000000E+00  0.00000000E+00
  0.00000000E+00  0.00000000E+00  0.00000000E+00
  0.00000000E+00  0.00000000E+00  0.00000000E+00
  0.00000000E+00  0.00000000E+00  0.00000000E+00
  0.00000000E+00  0.00000000E+00  0.00000000E+00
  0.00000000E+00  0.00000000E+00  0.00000000E+00
  0.00000000E+00  0.00000000E+00  0.00000000E+00
  0.00000000E+00  0.00000000E+00  0.00000000E+00
  0.00000000E+00  0.00000000E+00  0.00000000E+00
  0.00000000E+00  0.00000000E+00  0.00000000E+00
  0.00000000E+00  0.00000000E+00  0.00000000E+00
  0.00000000E+00  0.00000000E+00  0.00000000E+00
  0.00000000E+00  0.00000000E+00  0.00000000E+00
  0.00000000E+00  0.00000000E+00  0.00000000E+00
  0.00000000E+00  0.00000000E+00  0.00000000E+00
  0.00000000E+00  0.00000000E+00  0.00000000E+00
  0.00000000E+00  0.00000000E+00  0.00000000E+00
  0.00000000E+00  0.00000000E+00  0.00000000E+00
  0.00000000E+00  0.00000000E+00  0.00000000E+00
  0.00000000E+00  0.00000000E+00  0.00000000E+00
