Pt  C  O  C  O  H                       
    1.000000000000000     
    11.2213408561008308    0.0000000000000000    0.0000000000000000
     1.4026676070126025   10.7740943252779040    0.0000000000000000
     0.0000000000000000    0.0000000000000000   27.7475611781839042
   Pt   C    O    C    O    H 
    56     1     1     1     2     1
Selective dynamics
Direct
  0.0169491525423737  0.8644067796610173  0.3976208246282127   F   F   F
  0.1694915254237301  0.6440677966101660  0.4162352201503552   F   F   F
  0.0720338983050866  0.4237288135593218  0.4348496156724977   F   F   F
  0.2245762711864430  0.2033898305084776  0.4534640111946402   F   F   F
  0.1261551033802636  0.9888833135114682  0.4644723533001613   T   T   T
  0.0296828145884288  0.7726209508080522  0.4934886593559154   T   T   T
  0.1809936125929502  0.5519540017212982  0.5104989706338228   T   T   T
  0.0846706065132723  0.3332606092518903  0.5283804645210048   T   T   T
  0.2380453672484021  0.1081636110427799  0.5409864994308053   T   T   T
  0.1417972231390615  0.8871691042844186  0.5689915330157720   T   T   T
  0.0424920123977251  0.6794516055901875  0.5906836610379996   T   T   T
  0.1925461897791232  0.4648552962782848  0.6084951829124906   T   T   T
  0.0970785095533303  0.2469706141205922  0.6212469380086671   T   T   T
  0.9968527211732191  0.0359520075797250  0.6309466913566418   T   T   T
  0.2669491525423737  0.8644067796610173  0.3976208246282127   F   F   F
  0.4194915254237301  0.6440677966101660  0.4162352201503552   F   F   F
  0.3220338983050866  0.4237288135593218  0.4348496156724977   F   F   F
  0.4745762711864430  0.2033898305084776  0.4534640111946402   F   F   F
  0.3762343868068985  0.9897384318151249  0.4641954524098785   T   T   T
  0.2793404127096296  0.7728908173372764  0.4922973476036460   T   T   T
  0.4306500935343767  0.5495002441414741  0.5104762850331176   T   T   T
  0.3327647853079238  0.3337272062862082  0.5297264232239578   T   T   T
  0.4865307785913762  0.1089509575125657  0.5409000849653007   T   T   T
  0.3911713046976249  0.8870344782019220  0.5684571874417012   T   T   T
  0.2947620284532492  0.6740670090000284  0.5854766136878914   T   T   T
  0.4412028242320230  0.4658790279310354  0.6075866709399653   T   T   T
  0.3428940827485258  0.2505504350064998  0.6260549105268098   T   T   T
  0.2492638418219947  0.0354589596988180  0.6309018864629592   T   T   T
  0.5169491525423737  0.8644067796610173  0.3976208246282127   F   F   F
  0.6694915254237301  0.6440677966101660  0.4162352201503552   F   F   F
  0.5720338983050866  0.4237288135593218  0.4348496156724977   F   F   F
  0.7245762711864430  0.2033898305084776  0.4534640111946402   F   F   F
  0.6265844642841812  0.9901316489468460  0.4644083303065876   T   T   T
  0.5290466136989085  0.7729487879028327  0.4917633987898757   T   T   T
  0.6818490433412621  0.5499317759079244  0.5106646965686952   T   T   T
  0.5831057319471951  0.3331868735146412  0.5296210858880126   T   T   T
  0.7364582732682108  0.1094314025177169  0.5409046736052786   T   T   T
  0.6404029650177901  0.8874477617915787  0.5675636363056623   T   T   T
  0.5422971533013293  0.6715866930579710  0.5839513113806347   T   T   T
  0.6994899880406218  0.4656873648872968  0.6080183512379195   T   T   T
  0.5978610553490312  0.2500325339922275  0.6248367891342805   T   T   T
  0.4986844038000710  0.0335227001106090  0.6301471368963566   T   T   T
  0.7669491525423737  0.8644067796610173  0.3976208246282127   F   F   F
  0.9194915254237301  0.6440677966101660  0.4162352201503552   F   F   F
  0.8220338983050866  0.4237288135593218  0.4348496156724977   F   F   F
  0.9745762711864430  0.2033898305084776  0.4534640111946402   F   F   F
  0.8770675017878309  0.9893826936085530  0.4643399316319942   T   T   T
  0.7793609348937520  0.7739231580331910  0.4917004960976903   T   T   T
  0.9335526017573236  0.5519413386282529  0.5101448734275451   T   T   T
  0.8346837849173306  0.3349613079398907  0.5294387826808157   T   T   T
  0.9878289853504535  0.1073633123060834  0.5405660390304958   T   T   T
  0.8911982739343947  0.8877614990608600  0.5687163236473887   T   T   T
  0.7917288065995746  0.6755370439345948  0.5833562760170610   T   T   T
  0.9456652040818826  0.4628833544310881  0.6073767308513063   T   T   T
  0.8480770550381916  0.2492745309014620  0.6211264963429309   T   T   T
  0.7471484672847656  0.0358634347203617  0.6306734441987626   T   T   T
  0.4605774785300124  0.3479524639905996  0.6668112836113421   T   T   T
  0.4595146456056425  0.3653936039115678  0.7093239613959231   T   T   T
  0.0544235780067115  0.5636957193030792  0.6505310278007056   T   T   T
  0.0495413574314018  0.5837647421772095  0.6929429861934309   T   T   T
  0.6888634580707862  0.5044088211119095  0.6778055517651691   T   T   T
  0.7692565875960822  0.5204610411477210  0.6878402966397643   T   T   T
 
  0.00000000E+00  0.00000000E+00  0.00000000E+00
  0.00000000E+00  0.00000000E+00  0.00000000E+00
  0.00000000E+00  0.00000000E+00  0.00000000E+00
  0.00000000E+00  0.00000000E+00  0.00000000E+00
  0.00000000E+00  0.00000000E+00  0.00000000E+00
  0.00000000E+00  0.00000000E+00  0.00000000E+00
  0.00000000E+00  0.00000000E+00  0.00000000E+00
  0.00000000E+00  0.00000000E+00  0.00000000E+00
  0.00000000E+00  0.00000000E+00  0.00000000E+00
  0.00000000E+00  0.00000000E+00  0.00000000E+00
  0.00000000E+00  0.00000000E+00  0.00000000E+00
  0.00000000E+00  0.00000000E+00  0.00000000E+00
  0.00000000E+00  0.00000000E+00  0.00000000E+00
  0.00000000E+00  0.00000000E+00  0.00000000E+00
  0.00000000E+00  0.00000000E+00  0.00000000E+00
  0.00000000E+00  0.00000000E+00  0.00000000E+00
  0.00000000E+00  0.00000000E+00  0.00000000E+00
  0.00000000E+00  0.00000000E+00  0.00000000E+00
  0.00000000E+00  0.00000000E+00  0.00000000E+00
  0.00000000E+00  0.00000000E+00  0.00000000E+00
  0.00000000E+00  0.00000000E+00  0.00000000E+00
  0.00000000E+00  0.00000000E+00  0.00000000E+00
  0.00000000E+00  0.00000000E+00  0.00000000E+00
  0.00000000E+00  0.00000000E+00  0.00000000E+00
  0.00000000E+00  0.00000000E+00  0.00000000E+00
  0.00000000E+00  0.00000000E+00  0.00000000E+00
  0.00000000E+00  0.00000000E+00  0.00000000E+00
  0.00000000E+00  0.00000000E+00  0.00000000E+00
  0.00000000E+00  0.00000000E+00  0.00000000E+00
  0.00000000E+00  0.00000000E+00  0.00000000E+00
  0.00000000E+00  0.00000000E+00  0.00000000E+00
  0.00000000E+00  0.00000000E+00  0.00000000E+00
  0.00000000E+00  0.00000000E+00  0.00000000E+00
  0.00000000E+00  0.00000000E+00  0.00000000E+00
  0.00000000E+00  0.00000000E+00  0.00000000E+00
  0.00000000E+00  0.00000000E+00  0.00000000E+00
  0.00000000E+00  0.00000000E+00  0.00000000E+00
  0.00000000E+00  0.00000000E+00  0.00000000E+00
  0.00000000E+00  0.00000000E+00  0.00000000E+00
  0.00000000E+00  0.00000000E+00  0.00000000E+00
  0.00000000E+00  0.00000000E+00  0.00000000E+00
  0.00000000E+00  0.00000000E+00  0.00000000E+00
  0.00000000E+00  0.00000000E+00  0.00000000E+00
  0.00000000E+00  0.00000000E+00  0.00000000E+00
  0.00000000E+00  0.00000000E+00  0.00000000E+00
  0.00000000E+00  0.00000000E+00  0.00000000E+00
  0.00000000E+00  0.00000000E+00  0.00000000E+00
  0.00000000E+00  0.00000000E+00  0.00000000E+00
  0.00000000E+00  0.00000000E+00  0.00000000E+00
  0.00000000E+00  0.00000000E+00  0.00000000E+00
  0.00000000E+00  0.00000000E+00  0.00000000E+00
  0.00000000E+00  0.00000000E+00  0.00000000E+00
  0.00000000E+00  0.00000000E+00  0.00000000E+00
  0.00000000E+00  0.00000000E+00  0.00000000E+00
  0.00000000E+00  0.00000000E+00  0.00000000E+00
  0.00000000E+00  0.00000000E+00  0.00000000E+00
  0.00000000E+00  0.00000000E+00  0.00000000E+00
  0.00000000E+00  0.00000000E+00  0.00000000E+00
  0.00000000E+00  0.00000000E+00  0.00000000E+00
  0.00000000E+00  0.00000000E+00  0.00000000E+00
  0.00000000E+00  0.00000000E+00  0.00000000E+00
  0.00000000E+00  0.00000000E+00  0.00000000E+00
