Pt  C  O  C  O  H                       
    1.000000000000000     
    11.2213408561008308    0.0000000000000000    0.0000000000000000
     1.4026676070126025   10.7740943252779040    0.0000000000000000
     0.0000000000000000    0.0000000000000000   27.7475611781839042
   Pt   C    O    C    O    H 
    56     1     1     1     2     1
Selective dynamics
Direct
  0.0169491525423737  0.8644067796610173  0.3976208246282127   F   F   F
  0.1694915254237301  0.6440677966101660  0.4162352201503552   F   F   F
  0.0720338983050866  0.4237288135593218  0.4348496156724977   F   F   F
  0.2245762711864430  0.2033898305084776  0.4534640111946402   F   F   F
  0.1261602821397474  0.9882089213097091  0.4650046076882858   T   T   T
  0.0254939348882427  0.7721520134262965  0.4924973562939797   T   T   T
  0.1789356678968494  0.5493276734624909  0.5088311641618862   T   T   T
  0.0831131710396242  0.3304921234341482  0.5266789864626019   T   T   T
  0.2350781753801262  0.1052116836352653  0.5410821718315486   T   T   T
  0.1346605863106193  0.8818815993569274  0.5685321094401842   T   T   T
  0.0393320137546468  0.6650895088726071  0.5851710599211748   T   T   T
  0.1877994926024929  0.4545773804002399  0.6035134191783278   T   T   T
  0.0918844292095709  0.2422255932789917  0.6195468892355480   T   T   T
  0.9921970496106898  0.0296479596482258  0.6314339689645926   T   T   T
  0.2669491525423737  0.8644067796610173  0.3976208246282127   F   F   F
  0.4194915254237301  0.6440677966101660  0.4162352201503552   F   F   F
  0.3220338983050866  0.4237288135593218  0.4348496156724977   F   F   F
  0.4745762711864430  0.2033898305084776  0.4534640111946402   F   F   F
  0.3770640977873296  0.9885948072468510  0.4660832108094036   T   T   T
  0.2764413922133926  0.7711193419065943  0.4921330034182936   T   T   T
  0.4301672235818344  0.5506650048967447  0.5101747887281733   T   T   T
  0.3342360469924654  0.3327467422699895  0.5284474649012989   T   T   T
  0.4844260163163061  0.1030198934203480  0.5454419786270256   T   T   T
  0.3851397905356747  0.8829492264170720  0.5690608305602449   T   T   T
  0.2830317913294659  0.6684499867674478  0.5846721627290034   T   T   T
  0.4358500944009054  0.4570243721048721  0.6101993947859697   T   T   T
  0.3401819015143910  0.2420225826197547  0.6196669420145504   T   T   T
  0.2366016074706317  0.0272298174336171  0.6314017194448850   T   T   T
  0.5169491525423737  0.8644067796610173  0.3976208246282127   F   F   F
  0.6694915254237301  0.6440677966101660  0.4162352201503552   F   F   F
  0.5720338983050866  0.4237288135593218  0.4348496156724977   F   F   F
  0.7245762711864430  0.2033898305084776  0.4534640111946402   F   F   F
  0.6247797191315418  0.9878470689234075  0.4660273563733281   T   T   T
  0.5265102541804586  0.7705339468906851  0.4942641405875646   T   T   T
  0.6787335841448718  0.5537210642758182  0.5110584790118964   T   T   T
  0.5804718705280487  0.3311470548176168  0.5272863292241790   T   T   T
  0.7345774536519046  0.1041268604224432  0.5407391303438827   T   T   T
  0.6355657346296986  0.8812196093009246  0.5696509487445447   T   T   T
  0.5336306164567282  0.6700037249722766  0.5918480732979032   T   T   T
  0.6924404986405365  0.4506381246287652  0.6016434800868002   T   T   T
  0.5905332258553758  0.2401539681597727  0.6189092683035757   T   T   T
  0.4918085708590356  0.0245906357691978  0.6364066181541422   T   T   T
  0.7669491525423737  0.8644067796610173  0.3976208246282127   F   F   F
  0.9194915254237301  0.6440677966101660  0.4162352201503552   F   F   F
  0.8220338983050866  0.4237288135593218  0.4348496156724977   F   F   F
  0.9745762711864430  0.2033898305084776  0.4534640111946402   F   F   F
  0.8752791823320324  0.9880879132183077  0.4648156816984962   T   T   T
  0.7761062574161849  0.7718337783129173  0.4933279620521654   T   T   T
  0.9273622451434155  0.5511880829765339  0.5102178186620444   T   T   T
  0.8315179398341204  0.3311234114165247  0.5264459556298696   T   T   T
  0.9849683095483938  0.1036311934838105  0.5406493489476878   T   T   T
  0.8861861858461818  0.8810337770261402  0.5689006961186770   T   T   T
  0.7889002747074700  0.6673764415108432  0.5904402997215001   T   T   T
  0.9416672423859861  0.4514941503096658  0.6028846223085401   T   T   T
  0.8410568067966004  0.2417499491022827  0.6191254724255733   T   T   T
  0.7476418829680573  0.0279403881153828  0.6313072105980873   T   T   T
  0.4884407193591755  0.5889091876002573  0.6533396943944122   T   T   T
  0.4880249818174736  0.6112010132259839  0.6950267608018252   T   T   T
  0.4964879280042009  0.9745857893442547  0.7004480766733241   T   T   T
  0.4992074800072588  0.9443366568496510  0.7405432841332070   T   T   T
  0.7887293432120493  0.6958921911605271  0.6610481556704787   T   T   T
  0.7803913754734815  0.7867071227220712  0.6648347328635481   T   T   T
 
  0.00000000E+00  0.00000000E+00  0.00000000E+00
  0.00000000E+00  0.00000000E+00  0.00000000E+00
  0.00000000E+00  0.00000000E+00  0.00000000E+00
  0.00000000E+00  0.00000000E+00  0.00000000E+00
  0.00000000E+00  0.00000000E+00  0.00000000E+00
  0.00000000E+00  0.00000000E+00  0.00000000E+00
  0.00000000E+00  0.00000000E+00  0.00000000E+00
  0.00000000E+00  0.00000000E+00  0.00000000E+00
  0.00000000E+00  0.00000000E+00  0.00000000E+00
  0.00000000E+00  0.00000000E+00  0.00000000E+00
  0.00000000E+00  0.00000000E+00  0.00000000E+00
  0.00000000E+00  0.00000000E+00  0.00000000E+00
  0.00000000E+00  0.00000000E+00  0.00000000E+00
  0.00000000E+00  0.00000000E+00  0.00000000E+00
  0.00000000E+00  0.00000000E+00  0.00000000E+00
  0.00000000E+00  0.00000000E+00  0.00000000E+00
  0.00000000E+00  0.00000000E+00  0.00000000E+00
  0.00000000E+00  0.00000000E+00  0.00000000E+00
  0.00000000E+00  0.00000000E+00  0.00000000E+00
  0.00000000E+00  0.00000000E+00  0.00000000E+00
  0.00000000E+00  0.00000000E+00  0.00000000E+00
  0.00000000E+00  0.00000000E+00  0.00000000E+00
  0.00000000E+00  0.00000000E+00  0.00000000E+00
  0.00000000E+00  0.00000000E+00  0.00000000E+00
  0.00000000E+00  0.00000000E+00  0.00000000E+00
  0.00000000E+00  0.00000000E+00  0.00000000E+00
  0.00000000E+00  0.00000000E+00  0.00000000E+00
  0.00000000E+00  0.00000000E+00  0.00000000E+00
  0.00000000E+00  0.00000000E+00  0.00000000E+00
  0.00000000E+00  0.00000000E+00  0.00000000E+00
  0.00000000E+00  0.00000000E+00  0.00000000E+00
  0.00000000E+00  0.00000000E+00  0.00000000E+00
  0.00000000E+00  0.00000000E+00  0.00000000E+00
  0.00000000E+00  0.00000000E+00  0.00000000E+00
  0.00000000E+00  0.00000000E+00  0.00000000E+00
  0.00000000E+00  0.00000000E+00  0.00000000E+00
  0.00000000E+00  0.00000000E+00  0.00000000E+00
  0.00000000E+00  0.00000000E+00  0.00000000E+00
  0.00000000E+00  0.00000000E+00  0.00000000E+00
  0.00000000E+00  0.00000000E+00  0.00000000E+00
  0.00000000E+00  0.00000000E+00  0.00000000E+00
  0.00000000E+00  0.00000000E+00  0.00000000E+00
  0.00000000E+00  0.00000000E+00  0.00000000E+00
  0.00000000E+00  0.00000000E+00  0.00000000E+00
  0.00000000E+00  0.00000000E+00  0.00000000E+00
  0.00000000E+00  0.00000000E+00  0.00000000E+00
  0.00000000E+00  0.00000000E+00  0.00000000E+00
  0.00000000E+00  0.00000000E+00  0.00000000E+00
  0.00000000E+00  0.00000000E+00  0.00000000E+00
  0.00000000E+00  0.00000000E+00  0.00000000E+00
  0.00000000E+00  0.00000000E+00  0.00000000E+00
  0.00000000E+00  0.00000000E+00  0.00000000E+00
  0.00000000E+00  0.00000000E+00  0.00000000E+00
  0.00000000E+00  0.00000000E+00  0.00000000E+00
  0.00000000E+00  0.00000000E+00  0.00000000E+00
  0.00000000E+00  0.00000000E+00  0.00000000E+00
  0.00000000E+00  0.00000000E+00  0.00000000E+00
  0.00000000E+00  0.00000000E+00  0.00000000E+00
  0.00000000E+00  0.00000000E+00  0.00000000E+00
  0.00000000E+00  0.00000000E+00  0.00000000E+00
  0.00000000E+00  0.00000000E+00  0.00000000E+00
  0.00000000E+00  0.00000000E+00  0.00000000E+00
