Pt  C  O  C  O  H                       
    1.000000000000000     
    11.2213408561008308    0.0000000000000000    0.0000000000000000
     1.4026676070126025   10.7740943252779040    0.0000000000000000
     0.0000000000000000    0.0000000000000000   27.7475611781839042
   Pt   C    O    C    O    H 
    56     1     1     1     2     1
Selective dynamics
Direct
  0.0169491525423737  0.8644067796610173  0.3976208246282127   F   F   F
  0.1694915254237301  0.6440677966101660  0.4162352201503552   F   F   F
  0.0720338983050866  0.4237288135593218  0.4348496156724977   F   F   F
  0.2245762711864430  0.2033898305084776  0.4534640111946402   F   F   F
  0.1261315213636029  0.9893632532041876  0.4661138760829971   T   T   T
  0.0274977795551614  0.7723946288228191  0.4923860779937162   T   T   T
  0.1813224445249610  0.5490956576174377  0.5085079889754096   T   T   T
  0.0830197967816166  0.3276529311100198  0.5287685855016773   T   T   T
  0.2371356285961995  0.1048708580005932  0.5431536015084668   T   T   T
  0.1385479075667780  0.8825796531219142  0.5681104495751576   T   T   T
  0.0414883371148761  0.6647309225474703  0.5850846923938344   T   T   T
  0.1947823589407594  0.4547808880650450  0.6021927433992422   T   T   T
  0.0960847435667720  0.2456865577306558  0.6226496760377203   T   T   T
  0.9957061843472981  0.0223705751317903  0.6358276737210954   T   T   T
  0.2669491525423737  0.8644067796610173  0.3976208246282127   F   F   F
  0.4194915254237301  0.6440677966101660  0.4162352201503552   F   F   F
  0.3220338983050866  0.4237288135593218  0.4348496156724977   F   F   F
  0.4745762711864430  0.2033898305084776  0.4534640111946402   F   F   F
  0.3756098976204305  0.9883128685130812  0.4654596246913270   T   T   T
  0.2782835325321985  0.7718567777930400  0.4924098881951566   T   T   T
  0.4315124067246195  0.5510349590537886  0.5105252658883940   T   T   T
  0.3356103647085265  0.3311849851471240  0.5277488582784724   T   T   T
  0.4874940491310453  0.1027896748870763  0.5408514369885029   T   T   T
  0.3887736152059643  0.8807062506241957  0.5696249074994663   T   T   T
  0.2877873475337035  0.6676763295384500  0.5852067383136719   T   T   T
  0.4409157138592740  0.4567881758577943  0.6081285250202241   T   T   T
  0.3480424157007632  0.2399952542210903  0.6191667060738212   T   T   T
  0.2477127517109426  0.0211194588344219  0.6358112465133640   T   T   T
  0.5169491525423737  0.8644067796610173  0.3976208246282127   F   F   F
  0.6694915254237301  0.6440677966101660  0.4162352201503552   F   F   F
  0.5720338983050866  0.4237288135593218  0.4348496156724977   F   F   F
  0.7245762711864430  0.2033898305084776  0.4534640111946402   F   F   F
  0.6261778120424070  0.9871664436412353  0.4652807277552099   T   T   T
  0.5282497272398714  0.7705719084804467  0.4935698688250952   T   T   T
  0.6791471844430575  0.5508177126817110  0.5105225664886589   T   T   T
  0.5830687977107675  0.3324811250334762  0.5281535836714801   T   T   T
  0.7363686519543943  0.1023026733802975  0.5408860808290509   T   T   T
  0.6398796640526229  0.8795310406774592  0.5696839091727773   T   T   T
  0.5404593261596565  0.6716415640235734  0.5910850232053292   T   T   T
  0.6936366464675237  0.4561187612738082  0.6081136088176756   T   T   T
  0.5941300070051759  0.2386083640559586  0.6195752348528524   T   T   T
  0.4959756022431517  0.0262407668093216  0.6317931551543818   T   T   T
  0.7669491525423737  0.8644067796610173  0.3976208246282127   F   F   F
  0.9194915254237301  0.6440677966101660  0.4162352201503552   F   F   F
  0.8220338983050866  0.4237288135593218  0.4348496156724977   F   F   F
  0.9745762711864430  0.2033898305084776  0.4534640111946402   F   F   F
  0.8771032108406346  0.9893248292182273  0.4647035533323761   T   T   T
  0.7775033569133963  0.7717751687585230  0.4924591588355577   T   T   T
  0.9306513848847936  0.5492370832925381  0.5084890573365919   T   T   T
  0.8304142837992178  0.3317049088065532  0.5277162345331617   T   T   T
  0.9850574780231589  0.1044487181195758  0.5430467164951154   T   T   T
  0.8901706703314380  0.8815333462090443  0.5694748799772307   T   T   T
  0.7943406535259786  0.6668504052530837  0.5850316458375741   T   T   T
  0.9410875731669280  0.4540296643567254  0.6023351621150244   T   T   T
  0.8416912703889809  0.2402503584054540  0.6188325741005878   T   T   T
  0.7470188315385208  0.0266877041244427  0.6318269203388087   T   T   T
  0.5558211091947409  0.5518664664652401  0.6505827931557644   T   T   T
  0.5531321100253828  0.5728903144033788  0.6928915770003152   T   T   T
  0.1261524557024610  0.9814803082737725  0.6852625498725912   T   T   T
  0.1309350260526015  0.9473543963210669  0.7257221213273360   T   T   T
  0.0872820789393177  0.2700760648229231  0.6934693559037574   T   T   T
  0.1516489124326446  0.3193817630803729  0.7017582202815631   T   T   T
 
  0.00000000E+00  0.00000000E+00  0.00000000E+00
  0.00000000E+00  0.00000000E+00  0.00000000E+00
  0.00000000E+00  0.00000000E+00  0.00000000E+00
  0.00000000E+00  0.00000000E+00  0.00000000E+00
  0.00000000E+00  0.00000000E+00  0.00000000E+00
  0.00000000E+00  0.00000000E+00  0.00000000E+00
  0.00000000E+00  0.00000000E+00  0.00000000E+00
  0.00000000E+00  0.00000000E+00  0.00000000E+00
  0.00000000E+00  0.00000000E+00  0.00000000E+00
  0.00000000E+00  0.00000000E+00  0.00000000E+00
  0.00000000E+00  0.00000000E+00  0.00000000E+00
  0.00000000E+00  0.00000000E+00  0.00000000E+00
  0.00000000E+00  0.00000000E+00  0.00000000E+00
  0.00000000E+00  0.00000000E+00  0.00000000E+00
  0.00000000E+00  0.00000000E+00  0.00000000E+00
  0.00000000E+00  0.00000000E+00  0.00000000E+00
  0.00000000E+00  0.00000000E+00  0.00000000E+00
  0.00000000E+00  0.00000000E+00  0.00000000E+00
  0.00000000E+00  0.00000000E+00  0.00000000E+00
  0.00000000E+00  0.00000000E+00  0.00000000E+00
  0.00000000E+00  0.00000000E+00  0.00000000E+00
  0.00000000E+00  0.00000000E+00  0.00000000E+00
  0.00000000E+00  0.00000000E+00  0.00000000E+00
  0.00000000E+00  0.00000000E+00  0.00000000E+00
  0.00000000E+00  0.00000000E+00  0.00000000E+00
  0.00000000E+00  0.00000000E+00  0.00000000E+00
  0.00000000E+00  0.00000000E+00  0.00000000E+00
  0.00000000E+00  0.00000000E+00  0.00000000E+00
  0.00000000E+00  0.00000000E+00  0.00000000E+00
  0.00000000E+00  0.00000000E+00  0.00000000E+00
  0.00000000E+00  0.00000000E+00  0.00000000E+00
  0.00000000E+00  0.00000000E+00  0.00000000E+00
  0.00000000E+00  0.00000000E+00  0.00000000E+00
  0.00000000E+00  0.00000000E+00  0.00000000E+00
  0.00000000E+00  0.00000000E+00  0.00000000E+00
  0.00000000E+00  0.00000000E+00  0.00000000E+00
  0.00000000E+00  0.00000000E+00  0.00000000E+00
  0.00000000E+00  0.00000000E+00  0.00000000E+00
  0.00000000E+00  0.00000000E+00  0.00000000E+00
  0.00000000E+00  0.00000000E+00  0.00000000E+00
  0.00000000E+00  0.00000000E+00  0.00000000E+00
  0.00000000E+00  0.00000000E+00  0.00000000E+00
  0.00000000E+00  0.00000000E+00  0.00000000E+00
  0.00000000E+00  0.00000000E+00  0.00000000E+00
  0.00000000E+00  0.00000000E+00  0.00000000E+00
  0.00000000E+00  0.00000000E+00  0.00000000E+00
  0.00000000E+00  0.00000000E+00  0.00000000E+00
  0.00000000E+00  0.00000000E+00  0.00000000E+00
  0.00000000E+00  0.00000000E+00  0.00000000E+00
  0.00000000E+00  0.00000000E+00  0.00000000E+00
  0.00000000E+00  0.00000000E+00  0.00000000E+00
  0.00000000E+00  0.00000000E+00  0.00000000E+00
  0.00000000E+00  0.00000000E+00  0.00000000E+00
  0.00000000E+00  0.00000000E+00  0.00000000E+00
  0.00000000E+00  0.00000000E+00  0.00000000E+00
  0.00000000E+00  0.00000000E+00  0.00000000E+00
  0.00000000E+00  0.00000000E+00  0.00000000E+00
  0.00000000E+00  0.00000000E+00  0.00000000E+00
  0.00000000E+00  0.00000000E+00  0.00000000E+00
  0.00000000E+00  0.00000000E+00  0.00000000E+00
  0.00000000E+00  0.00000000E+00  0.00000000E+00
  0.00000000E+00  0.00000000E+00  0.00000000E+00
